     Program PWSCF v.6.5 starts on 13May2020 at 16:58: 3

     Current dimensions of program PWSCF are:
     Max number of different atomic species (ntypx) = 10
     Max number of k-points (npk) =  40000
     Max angular momentum in pseudopotentials (lmaxx) =  3

[...]

     Current dimensions of program PWSCF are:
     Max number of different atomic species (ntypx) = 10
     Max number of k-points (npk) =  40000
     Max angular momentum in pseudopotentials (lmaxx) =  3

     Program PWSCF v.6.5 starts on 13May2020 at 16:58: 3

     Current dimensions of program PWSCF are:
     Max number of different atomic species (ntypx) = 10
     Max number of k-points (npk) =  40000
     Max angular momentum in pseudopotentials (lmaxx) =  3
     Message from routine read_upf::
     Pseudo file C.pbe-n-kjpaw_psl.0.1.UPF has been fixed on the fly.
To avoid this message in the future, permanently fix
 your pseudo files following these instructions:
               file C.pbe-n-kjpaw_psl.0.1.UPF: wavefunction(s)  2P renormalized
     Message from routine setup:
     using ibrav=0 with symmetry is DISCOURAGED, use correct ibrav instead
     Message from routine read_upf::
     Pseudo file C.pbe-n-kjpaw_psl.0.1.UPF has been fixed on the fly.
To avoid this message in the future, permanently fix
 your pseudo files following these instructions:

               file C.pbe-n-kjpaw_psl.0.1.UPF: wavefunction(s)  2P renormalized
     Message from routine setup:
     using ibrav=0 with symmetry is DISCOURAGED, use correct ibrav instead

     Title:
     2 atoms graphene fragment. SCF

     bravais-lattice index     =            0
     lattice parameter (alat)  =       4.6531  a.u.
     unit-cell volume          =     355.3177 (a.u.)^3
     number of atoms/cell      =            2
     number of atomic types    =            1
     number of electrons       =         8.00
     number of Kohn-Sham states=            8
     kinetic-energy cutoff     =      52.0000  Ry
     charge density cutoff     =     208.0000  Ry
     convergence threshold     =      1.0E-06
     mixing beta               =       0.7000
     number of iterations used =            8  plain     mixing
     Exchange-correlation= SLA PW PBX PBC
                           (   1   4   3   4   0   0   0)

     celldm(1)=   4.653073  celldm(2)=   0.000000  celldm(3)=   0.000000
     celldm(4)=   0.000000  celldm(5)=   0.000000  celldm(6)=   0.000000

     crystal axes: (cart. coord. in units of alat)
               a(1) = (   1.001391  -0.000000   0.000000 )
               a(2) = (  -0.500696   0.867230   0.000000 )
               a(3) = (   0.000000   0.000000   4.061244 )

     reciprocal axes: (cart. coord. in units 2 pi/alat)
               b(1) = (  0.998611  0.576548 -0.000000 )
               b(2) = (  0.000000  1.153096 -0.000000 )
               b(3) = ( -0.000000 -0.000000  0.246230 )

     PseudoPot. # 1 for C  read from file:
     ./C.pbe-n-kjpaw_psl.0.1.UPF
     MD5 check sum: 430fe95172b1e11ef3f8ed03bac87931
     Pseudo is Projector augmented-wave + core cor, Zval =  4.0
     Generated using "atomic" code by A. Dal Corso v.5.0.99 svn rev. 10869
     Shape of augmentation charge: BESSEL
     Using radial grid of 1073 points,  4 beta functions with:
                l(1) =   0
                l(2) =   0
                l(3) =   1
                l(4) =   1
     Q(r) pseudized with 0 coefficients

     atomic species   valence    mass     pseudopotential
        C              4.00    12.01100     C ( 1.00)

     24 Sym. Ops., with inversion, found

                                    s                        frac. trans.

      isym =  1     identity

 cryst.   s( 1) = (     1          0          0      )
                  (     0          1          0      )
                  (     0          0          1      )

 cart.    s( 1) = (  1.0000000 -0.0000000  0.0000000 )
                  (  0.0000000  1.0000000  0.0000000 )
                  (  0.0000000  0.0000000  1.0000000 )

      isym =  2     180 deg rotation - cart. axis [0,0,1]

[...]

      isym =  5      60 deg rotation - cryst. axis [0,0,1]

[...]

 cryst.   s(10) = (     1          1          0      )
                  (     0         -1          0      )
                  (     0          0         -1      )

 cart.    s(10) = (  0.5000000  0.8660254  0.0000000 )
                  (  0.8660254 -0.5000000  0.0000000 )
                  (  0.0000000  0.0000000 -1.0000000 )

[...]

      isym = 13     inversion

[...]

      isym = 14     inv. 180 deg rotation - cart. axis [0,0,1]

[...]

      isym = 17     inv.  60 deg rotation - cryst. axis [0,0,1]

[...]

   Cartesian axes

     site n.     atom                  positions (alat units)
         1           C   tau(   1) = (   0.0000000   0.5781535   2.0306218  )
         2           C   tau(   2) = (   0.5006957   0.2890768   2.0306218  )

   Crystallographic axes

     site n.     atom                  positions (cryst. coord.)
         1           C   tau(   1) = (  0.3333333  0.6666667  0.5000000  )
         2           C   tau(   2) = (  0.6666667  0.3333333  0.5000000  )

     number of k points=    19  Methfessel-Paxton smearing, width (Ry)=  0.0200
                       cart. coord. in units 2pi/alat
        k(    1) = (   0.0000000   0.0000000   0.0000000), wk =   0.0138889
        k(    2) = (   0.0000000   0.0960914   0.0000000), wk =   0.0833333
        k(    3) = (   0.0000000   0.1921827   0.0000000), wk =   0.0833333
        k(    4) = (   0.0000000   0.2882741   0.0000000), wk =   0.0833333
        k(    5) = (   0.0000000   0.3843654   0.0000000), wk =   0.0833333
        k(    6) = (   0.0000000   0.4804568   0.0000000), wk =   0.0833333
        k(    7) = (   0.0000000  -0.5765481   0.0000000), wk =   0.0416667
        k(    8) = (   0.0832176   0.1441370   0.0000000), wk =   0.0833333
        k(    9) = (   0.0832176   0.2402284   0.0000000), wk =   0.1666667
        k(   10) = (   0.0832176   0.3363197   0.0000000), wk =   0.1666667
        k(   11) = (   0.0832176   0.4324111   0.0000000), wk =   0.1666667
        k(   12) = (   0.0832176   0.5285024   0.0000000), wk =   0.1666667
        k(   13) = (   0.1664351   0.2882741   0.0000000), wk =   0.0833333
        k(   14) = (   0.1664351   0.3843654   0.0000000), wk =   0.1666667
        k(   15) = (   0.1664351   0.4804568   0.0000000), wk =   0.1666667
        k(   16) = (   0.1664351   0.5765481   0.0000000), wk =   0.0833333
        k(   17) = (   0.2496527   0.4324111   0.0000000), wk =   0.0833333
        k(   18) = (   0.2496527   0.5285024   0.0000000), wk =   0.1666667
        k(   19) = (   0.3328702   0.5765481   0.0000000), wk =   0.0277778

                       cryst. coord.
        k(    1) = (   0.0000000   0.0000000   0.0000000), wk =   0.0138889
        k(    2) = (   0.0000000   0.0833333   0.0000000), wk =   0.0833333
        k(    3) = (   0.0000000   0.1666667   0.0000000), wk =   0.0833333
        k(    4) = (   0.0000000   0.2500000   0.0000000), wk =   0.0833333
        k(    5) = (   0.0000000   0.3333333   0.0000000), wk =   0.0833333
        k(    6) = (   0.0000000   0.4166667   0.0000000), wk =   0.0833333
        k(    7) = (   0.0000000  -0.5000000   0.0000000), wk =   0.0416667
        k(    8) = (   0.0833333   0.0833333   0.0000000), wk =   0.0833333
        k(    9) = (   0.0833333   0.1666667   0.0000000), wk =   0.1666667
        k(   10) = (   0.0833333   0.2500000   0.0000000), wk =   0.1666667
        k(   11) = (   0.0833333   0.3333333   0.0000000), wk =   0.1666667
        k(   12) = (   0.0833333   0.4166667   0.0000000), wk =   0.1666667
        k(   13) = (   0.1666667   0.1666667   0.0000000), wk =   0.0833333
        k(   14) = (   0.1666667   0.2500000   0.0000000), wk =   0.1666667
        k(   15) = (   0.1666667   0.3333333   0.0000000), wk =   0.1666667
        k(   16) = (   0.1666667   0.4166667   0.0000000), wk =   0.0833333
        k(   17) = (   0.2500000   0.2500000   0.0000000), wk =   0.0833333
        k(   18) = (   0.2500000   0.3333333   0.0000000), wk =   0.1666667
        k(   19) = (   0.3333333   0.3333333   0.0000000), wk =   0.0277778

[...]

     Message from routine read_upf::
     Pseudo file C.pbe-n-kjpaw_psl.0.1.UPF has been fixed on the fly.
To avoid this message in the future, permanently fix
 your pseudo files following these instructions:
     Dense  grid:    18099 G-vectors     FFT dimensions: (  24,  24,  90)

[...]

 cart.    s(18) = ( -0.5000000 -0.8660254  0.0000000 )
                  (  0.8660254 -0.5000000  0.0000000 )
     Message from routine read_upf::
                  (  0.0000000  0.0000000 -1.0000000 )

[...]

     bravais-lattice index     =            0
     lattice parameter (alat)  =       4.6531  a.u.
     Message from routine setup:
     unit-cell volume          =     355.3177 (a.u.)^3
     number of atoms/cell      =            2
     number of atomic types    =            1
     number of electrons       =         8.00
     number of Kohn-Sham states=            8
     kinetic-energy cutoff     =      52.0000  Ry
     charge density cutoff     =     208.0000  Ry
     convergence threshold     =      1.0E-06
     mixing beta               =       0.7000
     number of iterations used =            8  plain     mixing
     Exchange-correlation= SLA PW PBX PBC
                           (   1   4   3   4   0   0   0)

[...]

     using ibrav=0 with symmetry is DISCOURAGED, use correct ibrav instead
      isym = 10     180 deg rotation - cryst. axis [2,1,0]

[...]

     Title:
     2 atoms graphene fragment. SCF

[...]

     crystal axes: (cart. coord. in units of alat)

               a(1) = (   1.001391  -0.000000   0.000000 )
               a(2) = (  -0.500696   0.867230   0.000000 )
               a(3) = (   0.000000   0.000000   4.061244 )

[...]

     bravais-lattice index     =            0
     lattice parameter (alat)  =       4.6531  a.u.
     unit-cell volume          =     355.3177 (a.u.)^3
     number of atoms/cell      =            2
     number of atomic types    =            1
     number of electrons       =         8.00
     number of Kohn-Sham states=            8
     kinetic-energy cutoff     =      52.0000  Ry
     charge density cutoff     =     208.0000  Ry
     convergence threshold     =      1.0E-06
     mixing beta               =       0.7000
     number of iterations used =            8  plain     mixing
     Exchange-correlation= SLA PW PBX PBC
                           (   1   4   3   4   0   0   0)

     celldm(1)=   4.653073  celldm(2)=   0.000000  celldm(3)=   0.000000
     celldm(4)=   0.000000  celldm(5)=   0.000000  celldm(6)=   0.000000

     crystal axes: (cart. coord. in units of alat)
               a(1) = (   1.001391  -0.000000   0.000000 )
               a(2) = (  -0.500696   0.867230   0.000000 )
               a(3) = (   0.000000   0.000000   4.061244 )

     reciprocal axes: (cart. coord. in units 2 pi/alat)
               b(1) = (  0.998611  0.576548 -0.000000 )
               b(2) = (  0.000000  1.153096 -0.000000 )
               b(3) = ( -0.000000 -0.000000  0.246230 )

[...]
     xc contribution           =      -8.28657263 Ry
     ewald contribution        =      27.83048188 Ry
     scf correction            =       0.89097021 Ry
     one-center paw contrib.   =     -13.34324120 Ry
      -> PAW hartree energy AE =      18.62769974 Ry
      -> PAW hartree energy PS =     -18.59755346 Ry
      -> PAW xc energy AE      =     -21.18895203 Ry
      -> PAW xc energy PS      =       7.81556455 Ry
      -> total E_H with PAW    =      47.14686671 Ry
      -> total E_XC with PAW   =     -21.65996012 Ry
     smearing contrib. (-TS)   =      -0.00014155 Ry

[...]

   -23.8399 -10.9071  -7.8692  -7.8580   2.6323   3.7603   3.7605   4.3031
          k = 0.0000 0.0000 0.0000     band energies (ev):

[...]

     occupation numbers
     1.0000   1.0000   1.0000   1.0000  -0.0000  -0.0000  -0.0000  -0.0000
          k = 0.0000 0.0961 0.0000     band energies (ev):

[...]

     occupation numbers
          k = 0.0000 0.1922 0.0000     band energies (ev):
     1.0000   1.0000   1.0000   1.0000  -0.0000  -0.0000  -0.0000  -0.0000

[...]

     iteration #  2     ecut=    52.00 Ry     beta= 0.70

[...]

     occupation numbers
     Davidson diagonalization with overlap
     1.0000   1.0000   1.0000   1.0000  -0.0000  -0.0000  -0.0000  -0.0000

[...]

     negative rho (up, down):  6.291E-08 0.000E+00
     ethr =  2.24E-03,  avg # of iterations =  2.8

[...]

     ethr =  2.24E-03,  avg # of iterations =  2.8
          k = 0.1664 0.2883 0.0000     band energies (ev):

[...]

     ethr =  7.70E-05,  avg # of iterations =  7.3

[...]

     ethr =  7.70E-05,  avg # of iterations =  7.3
     negative rho (up, down):  8.464E-08 0.000E+00

[...]

     ethr =  7.70E-05,  avg # of iterations =  1.5
     negative rho (up, down):  8.464E-08 0.000E+00
     ethr =  7.70E-05,  avg # of iterations =  1.5

[...]

     ethr =  7.70E-05,  avg # of iterations =  1.5
     occupation numbers
     1.0000   1.0000   1.0000   1.0000  -0.0000  -0.0000  -0.0000  -0.0000

[...]

     ethr =  1.14E-07,  avg # of iterations =  3.4
     negative rho (up, down):  2.694E-05 0.000E+00
     ethr =  1.09E-06,  avg # of iterations =  3.7

[...]

     iteration #  9     ecut=    52.00 Ry     beta= 0.70
     Davidson diagonalization with overlap
     ethr =  1.09E-06,  avg # of iterations =  3.7
     negative rho (up, down):  2.640E-05 0.000E+00

[...]

     iteration # 10     ecut=    52.00 Ry     beta= 0.70

[...]

     occupation numbers
     Davidson diagonalization with overlap
     1.0000   1.0000   1.0000   1.0000  -0.0000  -0.0000  -0.0000  -0.0000

[...]

     iteration # 11     ecut=    52.00 Ry     beta= 0.70
     Davidson diagonalization with overlap
     negative rho (up, down):  2.676E-05 0.000E+00

[...]

     occupation numbers
     ethr =  1.14E-07,  avg # of iterations =  3.4
     1.0000   1.0000   1.0000   1.0000  -0.0000  -0.0000  -0.0000  -0.0000

[...]

     ethr =  9.49E-08,  avg # of iterations =  1.0
   -15.1309 -13.0325  -7.3629  -2.9154   1.5058   7.6626   9.4704  10.8607

[...]

     End of self-consistent calculation

          k = 0.0000 0.0000 0.0000 (  2287 PWs)   bands (ev):

[...]

     one-electron contribution =     -90.20647681 Ry
     hartree contribution      =      47.08431496 Ry
     xc contribution           =      -8.28946291 Ry
     ewald contribution        =      27.83048188 Ry
     one-center paw contrib.   =     -13.30724421 Ry
      -> PAW hartree energy AE =      22.23766397 Ry
      -> PAW hartree energy PS =     -22.20801753 Ry
      -> PAW xc energy AE      =     -21.97316415 Ry
      -> PAW xc energy PS      =       8.63627350 Ry
      -> total E_H with PAW    =      47.11396140 Ry
      -> total E_XC with PAW   =     -21.62635356 Ry
     smearing contrib. (-TS)   =      -0.00015672 Ry

     convergence has been achieved in  13 iterations

[...]

     negative rho (up, down):  2.722E-05 0.000E+00
   -16.6097 -11.0916  -7.0348  -4.2238   3.2739   7.2481   7.8458   8.8067

[...]

     iteration # 13     ecut=    52.00 Ry     beta= 0.70
     Davidson diagonalization with overlap
     ethr =  1.95E-08,  avg # of iterations =  1.0

[...]

     convergence has been achieved in  13 iterations
     ethr =  1.95E-08,  avg # of iterations =  1.0

     Forces acting on atoms (cartesian axes, Ry/au):

     atom    1 type  1   force =     0.00000000   -0.00000000    0.00000000
     atom    2 type  1   force =    -0.00000000    0.00000000    0.00000000
     The non-local contrib.  to forces
     atom    1 type  1   force =    -0.00000000   -0.00000000   -0.00000000
     atom    2 type  1   force =     0.00000000   -0.00000000    0.00000000
     The ionic contribution  to forces
     atom    1 type  1   force =    -0.00000001    0.00000000   -0.00000000
     atom    2 type  1   force =     0.00000001   -0.00000000    0.00000000
     The local contribution  to forces
     atom    1 type  1   force =     0.00000000    0.00000001    0.00000000
     atom    2 type  1   force =     0.00000001    0.00000000   -0.00000000
     The core correction contribution to forces
     atom    1 type  1   force =     0.00000000   -0.00000000   -0.00000000
     atom    2 type  1   force =    -0.00000000   -0.00000000    0.00000000
     The Hubbard contrib.    to forces
     atom    1 type  1   force =     0.00000000    0.00000000    0.00000000
     atom    2 type  1   force =     0.00000000    0.00000000    0.00000000
     The SCF correction term to forces
     atom    1 type  1   force =    -0.00000000   -0.00000000    0.00000000
     atom    2 type  1   force =     0.00000000    0.00000000   -0.00000000

     Total force =     0.000000     Total SCF correction =     0.000000

     Computing stress (Cartesian axis) and pressure

[...]

     ethr =  1.95E-08,  avg # of iterations =  1.0

     negative rho (up, down):  2.681E-05 0.000E+00
     ethr =  1.95E-08,  avg # of iterations =  1.0

[...]

     negative rho (up, down):  2.722E-05 0.000E+00
          total   stress  (Ry/bohr**3)                   (kbar)     P=        0.57
   0.00000184  -0.00000000   0.00000000            0.27       -0.00        0.00
  -0.00000000   0.00000184   0.00000000           -0.00        0.27        0.00
   0.00000000   0.00000000   0.00000784            0.00        0.00        1.15

     kinetic stress (kbar)   3804.36     -0.00      0.00
                               -0.00   3804.36     -0.00
                                0.00      0.00   4343.51

     local   stress (kbar) -43020.29      0.00      0.00
                                0.00 -43020.29     -0.00
                                0.00     -0.00  42149.91

     nonloc. stress (kbar)   1345.21     -0.00      0.00
                               -0.00   1345.21      0.00
                                0.00      0.00   1214.30

     hartree stress (kbar)  19150.04      0.00      0.00
                                0.00  19150.04      0.00
                                0.00      0.00 -18806.71

     exc-cor stress (kbar)   -444.23     -0.00     -0.00
                               -0.00   -444.23     -0.00
                               -0.00     -0.00   -485.70

     corecor stress (kbar)   -539.32      0.00      0.00
                                0.00   -539.32      0.00
                                0.00      0.00   -527.26

     ewald   stress (kbar)  19704.50     -0.00      0.00
                               -0.00  19704.50      0.00
                                0.00      0.00 -27886.90

     hubbard stress (kbar)      0.00      0.00      0.00
                                0.00      0.00      0.00
                                0.00      0.00      0.00

     london  stress (kbar)      0.00      0.00      0.00
                                0.00      0.00      0.00
                                0.00      0.00      0.00

     DFT-D3  stress (kbar)      0.00      0.00      0.00
                                0.00      0.00      0.00
                                0.00      0.00      0.00

     XDM     stress (kbar)      0.00      0.00      0.00
                                0.00      0.00      0.00
                                0.00      0.00      0.00

     dft-nl  stress (kbar)      0.00      0.00      0.00
                                0.00      0.00      0.00
                                0.00      0.00      0.00

     TS-vdW  stress (kbar)      0.00      0.00      0.00
                                0.00      0.00      0.00
                                0.00      0.00      0.00

     Writing output data file ./Gr.save/

     General routines

     PAW routines

   This run was terminated on:  16:58:21  13May2020

   JOB DONE.
          total   stress  (Ry/bohr**3)                   (kbar)     P=        0.57
   0.00000184  -0.00000000   0.00000000            0.27       -0.00        0.00
  -0.00000000   0.00000184   0.00000000           -0.00        0.27        0.00
   0.00000000   0.00000000   0.00000784            0.00        0.00        1.15

[...]

   JOB DONE.
     ethr =  1.95E-08,  avg # of iterations =  1.0

[...]

     convergence has been achieved in  13 iterations
     ethr =  2.50E-08,  avg # of iterations =  3.4

[...]

   JOB DONE.

[...]

          k = 0.3329 0.5765 0.0000     band energies (ev):

[...]

     one-electron contribution =     -90.20710850 Ry
     hartree contribution      =      47.07728743 Ry
     xc contribution           =      -8.28844905 Ry
     ewald contribution        =      27.83048188 Ry
     scf correction            =       0.00662703 Ry
     one-center paw contrib.   =     -13.30722635 Ry
      -> PAW hartree energy AE =      22.22150467 Ry
      -> PAW hartree energy PS =     -22.19187140 Ry
      -> PAW xc energy AE      =     -21.96956558 Ry
      -> PAW xc energy PS      =       8.63270597 Ry
      -> total E_H with PAW    =      47.10692069 Ry
      -> total E_XC with PAW   =     -21.62530867 Ry
     smearing contrib. (-TS)   =      -0.00015672 Ry

     iteration # 13     ecut=    52.00 Ry     beta= 0.70
     Davidson diagonalization with overlap

[...]

          total   stress  (Ry/bohr**3)                   (kbar)     P=        0.57
   0.00000184  -0.00000000   0.00000000            0.27       -0.00        0.00
  -0.00000000   0.00000184   0.00000000           -0.00        0.27        0.00
   0.00000000   0.00000000   0.00000784            0.00        0.00        1.15

[...]

   JOB DONE.
     ethr =  1.95E-08,  avg # of iterations =  1.0
          total   stress  (Ry/bohr**3)                   (kbar)     P=        0.57
   0.00000184  -0.00000000   0.00000000            0.27       -0.00        0.00
  -0.00000000   0.00000184   0.00000000           -0.00        0.27        0.00
   0.00000000   0.00000000   0.00000784            0.00        0.00        1.15

[...]

   JOB DONE.
     ethr =  1.95E-08,  avg # of iterations =  1.0

[...]

     End of self-consistent calculation

[...]

          k = 0.3329 0.5765 0.0000 (  2244 PWs)   bands (ev):

   -13.0720 -13.0720 -11.0330  -0.4595  -0.4595  10.1525  12.3766  12.3766

     occupation numbers
     1.0000   1.0000   1.0000   0.5000   0.5000  -0.0000  -0.0000  -0.0000

     the Fermi energy is    -0.4595 ev

!    total energy              =     -36.88854381 Ry
     Harris-Foulkes estimate   =     -36.88854430 Ry
     estimated scf accuracy    <       0.00000072 Ry

     total all-electron energy =      -152.416747 Ry

     The total energy is the sum of the following terms:

     one-electron contribution =     -90.20647681 Ry
     hartree contribution      =      47.08431496 Ry
     xc contribution           =      -8.28946291 Ry
     ewald contribution        =      27.83048188 Ry
     one-center paw contrib.   =     -13.30724421 Ry
      -> PAW hartree energy AE =      22.23766397 Ry
      -> PAW hartree energy PS =     -22.20801753 Ry
      -> PAW xc energy AE      =     -21.97316415 Ry
      -> PAW xc energy PS      =       8.63627350 Ry
      -> total E_H with PAW    =      47.11396140 Ry
      -> total E_XC with PAW   =     -21.62635356 Ry
     smearing contrib. (-TS)   =      -0.00015672 Ry

     convergence has been achieved in  13 iterations

[...]

     negative rho (up, down):  2.681E-05 0.000E+00

     Forces acting on atoms (cartesian axes, Ry/au):

     atom    1 type  1   force =     0.00000000   -0.00000000    0.00000000
     atom    2 type  1   force =    -0.00000000    0.00000000    0.00000000
     The non-local contrib.  to forces
     atom    1 type  1   force =    -0.00000000   -0.00000000   -0.00000000
     atom    2 type  1   force =     0.00000000   -0.00000000    0.00000000
     The ionic contribution  to forces
     atom    1 type  1   force =    -0.00000001    0.00000000   -0.00000000
     atom    2 type  1   force =     0.00000001   -0.00000000    0.00000000
     The local contribution  to forces
     atom    1 type  1   force =     0.00000000    0.00000001    0.00000000
     atom    2 type  1   force =     0.00000001    0.00000000   -0.00000000
     The core correction contribution to forces
     atom    1 type  1   force =     0.00000000   -0.00000000   -0.00000000
     atom    2 type  1   force =    -0.00000000   -0.00000000    0.00000000
     The Hubbard contrib.    to forces
     atom    1 type  1   force =     0.00000000    0.00000000    0.00000000
     atom    2 type  1   force =     0.00000000    0.00000000    0.00000000
     The SCF correction term to forces
     atom    1 type  1   force =    -0.00000000   -0.00000000    0.00000000
     atom    2 type  1   force =     0.00000000    0.00000000   -0.00000000

     Total force =     0.000000     Total SCF correction =     0.000000

     Computing stress (Cartesian axis) and pressure

     negative rho (up, down):  2.681E-05 0.000E+00
          total   stress  (Ry/bohr**3)                   (kbar)     P=        0.57
   0.00000184  -0.00000000   0.00000000            0.27       -0.00        0.00
  -0.00000000   0.00000184   0.00000000           -0.00        0.27        0.00
   0.00000000   0.00000000   0.00000784            0.00        0.00        1.15

[...]

   JOB DONE.
          total   stress  (Ry/bohr**3)                   (kbar)     P=        0.57
   0.00000184  -0.00000000   0.00000000            0.27       -0.00        0.00
  -0.00000000   0.00000184   0.00000000           -0.00        0.27        0.00
   0.00000000   0.00000000   0.00000784            0.00        0.00        1.15

     kinetic stress (kbar)   3804.36     -0.00      0.00
                               -0.00   3804.36     -0.00
                                0.00      0.00   4343.51

     local   stress (kbar) -43020.29      0.00      0.00
                                0.00 -43020.29     -0.00
                                0.00     -0.00  42149.91

     nonloc. stress (kbar)   1345.21     -0.00      0.00
                               -0.00   1345.21      0.00
                                0.00      0.00   1214.30

     hartree stress (kbar)  19150.04      0.00      0.00
                                0.00  19150.04      0.00
                                0.00      0.00 -18806.71

     exc-cor stress (kbar)   -444.23     -0.00     -0.00
                               -0.00   -444.23     -0.00
                               -0.00     -0.00   -485.70

     corecor stress (kbar)   -539.32      0.00      0.00
                                0.00   -539.32      0.00
                                0.00      0.00   -527.26

     ewald   stress (kbar)  19704.50     -0.00      0.00
                               -0.00  19704.50      0.00
                                0.00      0.00 -27886.90

     hubbard stress (kbar)      0.00      0.00      0.00
                                0.00      0.00      0.00
                                0.00      0.00      0.00

     london  stress (kbar)      0.00      0.00      0.00
                                0.00      0.00      0.00
                                0.00      0.00      0.00

     DFT-D3  stress (kbar)      0.00      0.00      0.00
                                0.00      0.00      0.00
                                0.00      0.00      0.00

     XDM     stress (kbar)      0.00      0.00      0.00
                                0.00      0.00      0.00
                                0.00      0.00      0.00

     dft-nl  stress (kbar)      0.00      0.00      0.00
                                0.00      0.00      0.00
                                0.00      0.00      0.00

     TS-vdW  stress (kbar)      0.00      0.00      0.00
                                0.00      0.00      0.00
                                0.00      0.00      0.00

     Writing output data file ./Gr.save/

     General routines

     PAW routines

   This run was terminated on:  16:58:22  13May2020

   JOB DONE.