     Program PWSCF v.6.5 starts on  4Jun2020 at 17:40:51

     Current dimensions of program PWSCF are:
     Max number of different atomic species (ntypx) = 10
     Max number of k-points (npk) =  40000
     Max angular momentum in pseudopotentials (lmaxx) =  3

[...]

     Current dimensions of program PWSCF are:
     Max number of different atomic species (ntypx) = 10
     Max number of k-points (npk) =  40000
     Max angular momentum in pseudopotentials (lmaxx) =  3

     Program PWSCF v.6.5 starts on  4Jun2020 at 17:40:51

     Current dimensions of program PWSCF are:
     Max number of different atomic species (ntypx) = 10
     Max number of k-points (npk) =  40000
     Max angular momentum in pseudopotentials (lmaxx) =  3
     Message from routine read_upf::
     Pseudo file C.pbe-n-kjpaw_psl.0.1.UPF has been fixed on the fly.
To avoid this message in the future, permanently fix
 your pseudo files following these instructions:
               file C.pbe-n-kjpaw_psl.0.1.UPF: wavefunction(s)  2P renormalized

     Title:
     Unstrained graphene optimization. 2 atoms fragment. SCF

     bravais-lattice index     =            4
     lattice parameter (alat)  =       4.6531  a.u.
     unit-cell volume          =     354.3310 (a.u.)^3
     number of atoms/cell      =            2
     number of atomic types    =            1
     number of electrons       =         8.00
     number of Kohn-Sham states=            8
     kinetic-energy cutoff     =      52.0000  Ry
     charge density cutoff     =     208.0000  Ry
     convergence threshold     =      1.0E-06
     mixing beta               =       0.7000
     number of iterations used =            8  plain     mixing
     Exchange-correlation= SLA PW PBX PBC
                           (   1   4   3   4   0   0   0)

     celldm(1)=   4.653073  celldm(2)=   0.000000  celldm(3)=   4.061244
     celldm(4)=   0.000000  celldm(5)=   0.000000  celldm(6)=   0.000000

     crystal axes: (cart. coord. in units of alat)
               a(1) = (   1.000000   0.000000   0.000000 )
               a(2) = (  -0.500000   0.866025   0.000000 )
               a(3) = (   0.000000   0.000000   4.061244 )

     reciprocal axes: (cart. coord. in units 2 pi/alat)
               b(1) = (  1.000000  0.577350 -0.000000 )
               b(2) = (  0.000000  1.154701  0.000000 )
               b(3) = (  0.000000 -0.000000  0.246230 )

     PseudoPot. # 1 for C  read from file:
     ./C.pbe-n-kjpaw_psl.0.1.UPF
     MD5 check sum: 430fe95172b1e11ef3f8ed03bac87931
     Pseudo is Projector augmented-wave + core cor, Zval =  4.0
     Generated using "atomic" code by A. Dal Corso v.5.0.99 svn rev. 10869
     Shape of augmentation charge: BESSEL
     Using radial grid of 1073 points,  4 beta functions with:
                l(1) =   0
                l(2) =   0
                l(3) =   1
                l(4) =   1
     Q(r) pseudized with 0 coefficients

     atomic species   valence    mass     pseudopotential
        C              4.00    12.01100     C ( 1.00)

     24 Sym. Ops., with inversion, found

                                    s                        frac. trans.

      isym =  1     identity

 cryst.   s( 1) = (     1          0          0      )
                  (     0          1          0      )
                  (     0          0          1      )

 cart.    s( 1) = (  1.0000000  0.0000000  0.0000000 )
                  (  0.0000000  1.0000000  0.0000000 )
                  (  0.0000000  0.0000000  1.0000000 )

      isym =  2     180 deg rotation - cart. axis [0,0,1]

[...]

      isym =  5      60 deg rotation - cryst. axis [0,0,1]

[...]

 cryst.   s(10) = (     1          1          0      )
                  (     0         -1          0      )
                  (     0          0         -1      )

 cart.    s(10) = (  0.5000000  0.8660254  0.0000000 )
                  (  0.8660254 -0.5000000  0.0000000 )
                  (  0.0000000  0.0000000 -1.0000000 )

[...]

      isym = 13     inversion

[...]

      isym = 14     inv. 180 deg rotation - cart. axis [0,0,1]

[...]

      isym = 17     inv.  60 deg rotation - cryst. axis [0,0,1]

[...]

     point group D_6h(6/mmm)
     there are 12 classes
     the character table:

       E     2C6   2C3   C2    3C2'  3C2'' i     2S3   2S6   s_h   3s_d  3s_v
A_1g   1.00  1.00  1.00  1.00  1.00  1.00  1.00  1.00  1.00  1.00  1.00  1.00
A_2g   1.00  1.00  1.00  1.00 -1.00 -1.00  1.00  1.00  1.00  1.00 -1.00 -1.00
B_1g   1.00 -1.00  1.00 -1.00  1.00 -1.00  1.00 -1.00  1.00 -1.00  1.00 -1.00
B_2g   1.00 -1.00  1.00 -1.00 -1.00  1.00  1.00 -1.00  1.00 -1.00 -1.00  1.00
E_1g   2.00  1.00 -1.00 -2.00  0.00  0.00  2.00  1.00 -1.00 -2.00  0.00  0.00
E_2g   2.00 -1.00 -1.00  2.00  0.00  0.00  2.00 -1.00 -1.00  2.00  0.00  0.00
A_1u   1.00  1.00  1.00  1.00  1.00  1.00 -1.00 -1.00 -1.00 -1.00 -1.00 -1.00
A_2u   1.00  1.00  1.00  1.00 -1.00 -1.00 -1.00 -1.00 -1.00 -1.00  1.00  1.00
B_1u   1.00 -1.00  1.00 -1.00  1.00 -1.00 -1.00  1.00 -1.00  1.00 -1.00  1.00
B_2u   1.00 -1.00  1.00 -1.00 -1.00  1.00 -1.00  1.00 -1.00  1.00  1.00 -1.00
E_1u   2.00  1.00 -1.00 -2.00  0.00  0.00 -2.00 -1.00  1.00  2.00  0.00  0.00
E_2u   2.00 -1.00 -1.00  2.00  0.00  0.00 -2.00  1.00  1.00 -2.00  0.00  0.00

     the symmetry operations in each class and the name of the first element:

     E        1
          identity
     2C6      5    6
           60 deg rotation - cryst. axis [0,0,1]
     2C3      7    8
          120 deg rotation - cryst. axis [0,0,1]
     C2       2
          180 deg rotation - cart. axis [0,0,1]
     3C2'     4   12   11
          180 deg rotation - cart. axis [1,0,0]
     3C2''    3    9   10
          180 deg rotation - cart. axis [0,1,0]
     i       13
          inversion
     2S3     17   18
          inv.  60 deg rotation - cryst. axis [0,0,1]
     2S6     19   20
          inv. 120 deg rotation - cryst. axis [0,0,1]
     s_h     14
          inv. 180 deg rotation - cart. axis [0,0,1]
     3s_d    16   24   23
          inv. 180 deg rotation - cart. axis [1,0,0]
     3s_v    15   21   22
          inv. 180 deg rotation - cart. axis [0,1,0]

   Cartesian axes

     site n.     atom                  positions (alat units)
         1           C   tau(   1) = (   0.0000000   0.5773503   2.0306218  )
         2           C   tau(   2) = (   0.5000000   0.2886751   2.0306218  )

   Crystallographic axes

     site n.     atom                  positions (cryst. coord.)
         1           C   tau(   1) = (  0.3333333  0.6666667  0.5000000  )
         2           C   tau(   2) = (  0.6666667  0.3333333  0.5000000  )

     number of k points=    19  Methfessel-Paxton smearing, width (Ry)=  0.0200
                       cart. coord. in units 2pi/alat
        k(    1) = (   0.0000000   0.0000000   0.0000000), wk =   0.0138889
        k(    2) = (   0.0000000   0.0962250   0.0000000), wk =   0.0833333
        k(    3) = (   0.0000000   0.1924501   0.0000000), wk =   0.0833333
        k(    4) = (   0.0000000   0.2886751   0.0000000), wk =   0.0833333
        k(    5) = (   0.0000000   0.3849002   0.0000000), wk =   0.0833333
        k(    6) = (   0.0000000   0.4811252   0.0000000), wk =   0.0833333
        k(    7) = (   0.0000000  -0.5773503   0.0000000), wk =   0.0416667
        k(    8) = (   0.0833333   0.1443376   0.0000000), wk =   0.0833333
        k(    9) = (   0.0833333   0.2405626   0.0000000), wk =   0.1666667
        k(   10) = (   0.0833333   0.3367877   0.0000000), wk =   0.1666667
        k(   11) = (   0.0833333   0.4330127   0.0000000), wk =   0.1666667
        k(   12) = (   0.0833333   0.5292377   0.0000000), wk =   0.1666667
        k(   13) = (   0.1666667   0.2886751   0.0000000), wk =   0.0833333
        k(   14) = (   0.1666667   0.3849002   0.0000000), wk =   0.1666667
        k(   15) = (   0.1666667   0.4811252   0.0000000), wk =   0.1666667
        k(   16) = (   0.1666667   0.5773503   0.0000000), wk =   0.0833333
        k(   17) = (   0.2500000   0.4330127   0.0000000), wk =   0.0833333
        k(   18) = (   0.2500000   0.5292377   0.0000000), wk =   0.1666667
        k(   19) = (   0.3333333   0.5773503   0.0000000), wk =   0.0277778

                       cryst. coord.
        k(    1) = (   0.0000000   0.0000000   0.0000000), wk =   0.0138889
        k(    2) = (   0.0000000   0.0833333   0.0000000), wk =   0.0833333
        k(    3) = (   0.0000000   0.1666667   0.0000000), wk =   0.0833333
        k(    4) = (   0.0000000   0.2500000   0.0000000), wk =   0.0833333
        k(    5) = (   0.0000000   0.3333333   0.0000000), wk =   0.0833333
        k(    6) = (   0.0000000   0.4166667   0.0000000), wk =   0.0833333
        k(    7) = (   0.0000000  -0.5000000   0.0000000), wk =   0.0416667
        k(    8) = (   0.0833333   0.0833333   0.0000000), wk =   0.0833333
        k(    9) = (   0.0833333   0.1666667   0.0000000), wk =   0.1666667
        k(   10) = (   0.0833333   0.2500000   0.0000000), wk =   0.1666667
        k(   11) = (   0.0833333   0.3333333   0.0000000), wk =   0.1666667
        k(   12) = (   0.0833333   0.4166667   0.0000000), wk =   0.1666667
        k(   13) = (   0.1666667   0.1666667   0.0000000), wk =   0.0833333
        k(   14) = (   0.1666667   0.2500000   0.0000000), wk =   0.1666667
        k(   15) = (   0.1666667   0.3333333   0.0000000), wk =   0.1666667
        k(   16) = (   0.1666667   0.4166667   0.0000000), wk =   0.0833333
        k(   17) = (   0.2500000   0.2500000   0.0000000), wk =   0.0833333
        k(   18) = (   0.2500000   0.3333333   0.0000000), wk =   0.1666667
        k(   19) = (   0.3333333   0.3333333   0.0000000), wk =   0.0277778

     Message from routine read_upf::

[...]

     atomic species   valence    mass     pseudopotential
     Message from routine read_upf::
        C              4.00    12.01100     C ( 1.00)

[...]

     Pseudo file C.pbe-n-kjpaw_psl.0.1.UPF has been fixed on the fly.
To avoid this message in the future, permanently fix
 your pseudo files following these instructions:

[...]

     number of k points=    19  Methfessel-Paxton smearing, width (Ry)=  0.0200
                       cart. coord. in units 2pi/alat
        k(    1) = (   0.0000000   0.0000000   0.0000000), wk =   0.0138889
        k(    2) = (   0.0000000   0.0962250   0.0000000), wk =   0.0833333
        k(    3) = (   0.0000000   0.1924501   0.0000000), wk =   0.0833333
        k(    4) = (   0.0000000   0.2886751   0.0000000), wk =   0.0833333
        k(    5) = (   0.0000000   0.3849002   0.0000000), wk =   0.0833333
        k(    6) = (   0.0000000   0.4811252   0.0000000), wk =   0.0833333
        k(    7) = (   0.0000000  -0.5773503   0.0000000), wk =   0.0416667
        k(    8) = (   0.0833333   0.1443376   0.0000000), wk =   0.0833333
               file C.pbe-n-kjpaw_psl.0.1.UPF: wavefunction(s)  2P renormalized
        k(    9) = (   0.0833333   0.2405626   0.0000000), wk =   0.1666667
        k(   10) = (   0.0833333   0.3367877   0.0000000), wk =   0.1666667
        k(   11) = (   0.0833333   0.4330127   0.0000000), wk =   0.1666667
        k(   12) = (   0.0833333   0.5292377   0.0000000), wk =   0.1666667
[...]
   -18.4993  -6.6628  -4.8335  -3.6572   3.4122   5.0553   6.0656   8.7853

[...]

     occupation numbers

[...]

     iteration #  4     ecut=    52.00 Ry     beta= 0.70
     total all-electron energy =      -152.418578 Ry

[...]

     one-electron contribution =     -90.23421928 Ry
     hartree contribution      =      47.62701074 Ry
     xc contribution           =      -8.34793176 Ry
     ewald contribution        =      27.96304911 Ry
     scf correction            =      -0.58506165 Ry
     one-center paw contrib.   =     -13.31306593 Ry
      -> PAW hartree energy AE =      22.61172140 Ry
      -> PAW hartree energy PS =     -22.58130244 Ry
      -> PAW xc energy AE      =     -22.05976590 Ry
      -> PAW xc energy PS      =       8.71628101 Ry
     Davidson diagonalization with overlap
      -> total E_H with PAW    =      47.65742969 Ry
      -> total E_XC with PAW   =     -21.69141664 Ry
     smearing contrib. (-TS)   =      -0.00015672 Ry

[...]

!    total energy              =     -36.88826083 Ry
     Harris-Foulkes estimate   =     -36.88838213 Ry
     estimated scf accuracy    <       0.00020629 Ry
     ethr =  6.07E-05,  avg # of iterations =  3.7

[...]

     ethr =  2.58E-06,  avg # of iterations =  4.2

[...]

     one-electron contribution =     -90.49316547 Ry
     hartree contribution      =      47.20085806 Ry
     xc contribution           =      -8.29263575 Ry
     ewald contribution        =      27.96304911 Ry
     scf correction            =       0.04095470 Ry
     one-center paw contrib.   =     -13.30741886 Ry
      -> PAW hartree energy AE =      22.30981108 Ry
      -> PAW hartree energy PS =     -22.28008936 Ry

     negative rho (up, down):  2.464E-05 0.000E+00
      -> PAW xc energy AE      =     -21.98938301 Ry
      -> PAW xc energy PS      =       8.65224243 Ry
      -> total E_H with PAW    =      47.23057978 Ry
      -> total E_XC with PAW   =     -21.62977633 Ry
     smearing contrib. (-TS)   =      -0.00015672 Ry

[...]

     negative rho (up, down):  2.517E-05 0.000E+00
   -15.9839 -12.1729  -6.6892  -3.6335   2.3655   7.0775   8.1793   9.7160

[...]

     iteration # 14     ecut=    52.00 Ry     beta= 0.70
     Davidson diagonalization with overlap
     negative rho (up, down):  2.808E-05 0.000E+00
     ethr =  1.25E-07,  avg # of iterations =  2.1

[...]

     occupation numbers
     1.0000   1.0000   1.0000   1.0000  -0.0000  -0.0000  -0.0000  -0.0000
     ethr =  1.25E-07,  avg # of iterations =  2.1

[...]

     occupation numbers
     ethr =  3.72E-08,  avg # of iterations =  3.0
     1.0000   1.0000   1.0000   1.0000  -0.0000  -0.0000  -0.0000  -0.0000

[...]

     End of self-consistent calculation

          k = 0.0000 0.0000 0.0000 (  2263 PWs)   bands (ev):

[...]

     one-electron contribution =     -90.46787048 Ry
     hartree contribution      =      47.21952981 Ry
     xc contribution           =      -8.29560262 Ry
     ewald contribution        =      27.96304911 Ry
     one-center paw contrib.   =     -13.30746899 Ry
      -> PAW hartree energy AE =      22.33865513 Ry
      -> PAW hartree energy PS =     -22.30891268 Ry
      -> PAW xc energy AE      =     -21.99583575 Ry
      -> PAW xc energy PS      =       8.65862432 Ry
      -> total E_H with PAW    =      47.24927225 Ry
      -> total E_XC with PAW   =     -21.63281406 Ry
     smearing contrib. (-TS)   =      -0.00015672 Ry

     convergence has been achieved in  14 iterations
     ethr =  1.25E-07,  avg # of iterations =  2.1

[...]

     iteration # 13     ecut=    52.00 Ry     beta= 0.70
     Davidson diagonalization with overlap
     negative rho (up, down):  2.917E-05 0.000E+00

     Forces acting on atoms (cartesian axes, Ry/au):

     atom    1 type  1   force =    -0.00000000   -0.00000000    0.00000000
     atom    2 type  1   force =     0.00000000    0.00000000    0.00000000
     The non-local contrib.  to forces
     atom    1 type  1   force =     0.00000000   -0.00000000    0.00000000
     atom    2 type  1   force =     0.00000000   -0.00000000   -0.00000000
     The ionic contribution  to forces
     atom    1 type  1   force =    -0.00000001    0.00000000    0.00000000
     atom    2 type  1   force =     0.00000001   -0.00000000    0.00000000
     The local contribution  to forces
     atom    1 type  1   force =     0.00000000    0.00000001   -0.00000000
     atom    2 type  1   force =     0.00000001    0.00000000   -0.00000000
     The core correction contribution to forces
     atom    1 type  1   force =    -0.00000000   -0.00000000   -0.00000000
     atom    2 type  1   force =    -0.00000000   -0.00000000   -0.00000000
     The Hubbard contrib.    to forces
     atom    1 type  1   force =     0.00000000    0.00000000    0.00000000
     atom    2 type  1   force =     0.00000000    0.00000000    0.00000000
     The SCF correction term to forces
     atom    1 type  1   force =     0.00000000   -0.00000000   -0.00000000
     atom    2 type  1   force =    -0.00000000   -0.00000000   -0.00000000

     Total force =     0.000000     Total SCF correction =     0.000000

     Computing stress (Cartesian axis) and pressure

[...]

     convergence has been achieved in  14 iterations
     negative rho (up, down):  2.717E-05 0.000E+00

[...]

     convergence has been achieved in  14 iterations

[...]

          total   stress  (Ry/bohr**3)                   (kbar)     P=        4.08
   0.00003947   0.00000000   0.00000000            5.81        0.00        0.00
   0.00000000   0.00003947  -0.00000000            0.00        5.81       -0.00
  -0.00000000   0.00000000   0.00000424           -0.00        0.00        0.62

     kinetic stress (kbar)   3821.48      0.00      0.00
                                0.00   3821.48      0.00
                                0.00      0.00   4359.46

     local   stress (kbar) -43264.61      0.00      0.00
                                0.00 -43264.61      0.00
                                0.00      0.00  42399.48

     nonloc. stress (kbar)   1349.85     -0.00     -0.00
                               -0.00   1349.85      0.00
                                0.00     -0.00   1217.81

     hartree stress (kbar)  19260.43     -0.00      0.00
                               -0.00  19260.43      0.00
                                0.00      0.00 -18917.08

     exc-cor stress (kbar)   -446.17     -0.00      0.00
                               -0.00   -446.17      0.00
                                0.00      0.00   -487.82

     corecor stress (kbar)   -541.01      0.00     -0.00
                                0.00   -541.01     -0.00
                               -0.00     -0.00   -528.81

     ewald   stress (kbar)  19825.82     -0.00      0.00
                               -0.00  19825.82      0.00
                                0.00      0.00 -28042.43

     hubbard stress (kbar)      0.00      0.00      0.00
                                0.00      0.00      0.00
                                0.00      0.00      0.00

     london  stress (kbar)      0.00      0.00      0.00
                                0.00      0.00      0.00
                                0.00      0.00      0.00

     DFT-D3  stress (kbar)      0.00      0.00      0.00
                                0.00      0.00      0.00
                                0.00      0.00      0.00

     XDM     stress (kbar)      0.00      0.00      0.00
                                0.00      0.00      0.00
                                0.00      0.00      0.00

     dft-nl  stress (kbar)      0.00      0.00      0.00
                                0.00      0.00      0.00
                                0.00      0.00      0.00

     TS-vdW  stress (kbar)      0.00      0.00      0.00
                                0.00      0.00      0.00
                                0.00      0.00      0.00

     Writing output data file ./Gr.save/

     General routines

     PAW routines

   This run was terminated on:  17:41: 9   4Jun2020

   JOB DONE.

[...]

     negative rho (up, down):  2.733E-05 0.000E+00
          total   stress  (Ry/bohr**3)                   (kbar)     P=        4.08
   0.00003947   0.00000000   0.00000000            5.81        0.00        0.00
   0.00000000   0.00003947  -0.00000000            0.00        5.81       -0.00
  -0.00000000   0.00000000   0.00000424           -0.00        0.00        0.62

[...]

   This run was terminated on:  17:41:10   4Jun2020

   JOB DONE.
          total   stress  (Ry/bohr**3)                   (kbar)     P=        4.08
   0.00003947   0.00000000   0.00000000            5.81        0.00        0.00
   0.00000000   0.00003947  -0.00000000            0.00        5.81       -0.00
  -0.00000000   0.00000000   0.00000424           -0.00        0.00        0.62

[...]

     iteration # 14     ecut=    52.00 Ry     beta= 0.70
     Davidson diagonalization with overlap
     ethr =  3.72E-08,  avg # of iterations =  2.4

[...]

     convergence has been achieved in  14 iterations
          total   stress  (Ry/bohr**3)                   (kbar)     P=        4.08
   0.00003947   0.00000000   0.00000000            5.81        0.00        0.00
   0.00000000   0.00003947  -0.00000000            0.00        5.81       -0.00
  -0.00000000   0.00000000   0.00000424           -0.00        0.00        0.62

[...]

     convergence has been achieved in  14 iterations
     ethr =  3.72E-08,  avg # of iterations =  3.0

[...]

          k = 0.3333 0.5774 0.0000     band energies (ev):

[...]

     one-electron contribution =     -90.47272543 Ry
     hartree contribution      =      47.21610832 Ry
     xc contribution           =      -8.29507672 Ry
     ewald contribution        =      27.96304911 Ry
     scf correction            =       0.00772466 Ry
     one-center paw contrib.   =     -13.30744214 Ry
      -> PAW hartree energy AE =      22.32963409 Ry
      -> PAW hartree energy PS =     -22.29990078 Ry
      -> PAW xc energy AE      =     -21.99382685 Ry
      -> PAW xc energy PS      =       8.65665140 Ry
      -> total E_H with PAW    =      47.24584164 Ry
      -> total E_XC with PAW   =     -21.63225217 Ry
     smearing contrib. (-TS)   =      -0.00015672 Ry

     iteration # 14     ecut=    52.00 Ry     beta= 0.70
     Davidson diagonalization with overlap

[...]

     ethr =  3.72E-08,  avg # of iterations =  3.0

[...]

   JOB DONE.
          total   stress  (Ry/bohr**3)                   (kbar)     P=        4.08
   0.00003947   0.00000000   0.00000000            5.81        0.00        0.00
   0.00000000   0.00003947  -0.00000000            0.00        5.81       -0.00
  -0.00000000   0.00000000   0.00000424           -0.00        0.00        0.62

[...]

     negative rho (up, down):  2.717E-05 0.000E+00
     ethr =  3.72E-08,  avg # of iterations =  3.0

[...]

     End of self-consistent calculation

[...]

          k = 0.3333 0.5774 0.0000 (  2244 PWs)   bands (ev):

   -13.0605 -13.0605 -11.0398  -0.4369  -0.4369  10.1789  12.4257  12.4257

     occupation numbers
     1.0000   1.0000   1.0000   0.5000   0.5000  -0.0000  -0.0000  -0.0000

     the Fermi energy is    -0.4369 ev

!    total energy              =     -36.88851989 Ry
     Harris-Foulkes estimate   =     -36.88852003 Ry
     estimated scf accuracy    <       0.00000021 Ry

     total all-electron energy =      -152.416723 Ry

     The total energy is the sum of the following terms:

     one-electron contribution =     -90.46787048 Ry
     hartree contribution      =      47.21952981 Ry
     xc contribution           =      -8.29560262 Ry
     ewald contribution        =      27.96304911 Ry
     one-center paw contrib.   =     -13.30746899 Ry
      -> PAW hartree energy AE =      22.33865513 Ry
      -> PAW hartree energy PS =     -22.30891268 Ry
      -> PAW xc energy AE      =     -21.99583575 Ry
      -> PAW xc energy PS      =       8.65862432 Ry
      -> total E_H with PAW    =      47.24927225 Ry
      -> total E_XC with PAW   =     -21.63281406 Ry
     smearing contrib. (-TS)   =      -0.00015672 Ry

     convergence has been achieved in  14 iterations

     negative rho (up, down):  2.717E-05 0.000E+00

     Forces acting on atoms (cartesian axes, Ry/au):

     atom    1 type  1   force =    -0.00000000   -0.00000000    0.00000000
     atom    2 type  1   force =     0.00000000    0.00000000    0.00000000
     The non-local contrib.  to forces
     atom    1 type  1   force =     0.00000000   -0.00000000    0.00000000
     atom    2 type  1   force =     0.00000000   -0.00000000   -0.00000000
     The ionic contribution  to forces
     atom    1 type  1   force =    -0.00000001    0.00000000    0.00000000
     atom    2 type  1   force =     0.00000001   -0.00000000    0.00000000
     The local contribution  to forces
     atom    1 type  1   force =     0.00000000    0.00000001   -0.00000000
     atom    2 type  1   force =     0.00000001    0.00000000   -0.00000000
     The core correction contribution to forces
     atom    1 type  1   force =    -0.00000000   -0.00000000   -0.00000000
     atom    2 type  1   force =    -0.00000000   -0.00000000   -0.00000000
     The Hubbard contrib.    to forces
     atom    1 type  1   force =     0.00000000    0.00000000    0.00000000
     atom    2 type  1   force =     0.00000000    0.00000000    0.00000000
     The SCF correction term to forces
     atom    1 type  1   force =     0.00000000   -0.00000000   -0.00000000
     atom    2 type  1   force =    -0.00000000   -0.00000000   -0.00000000

     Total force =     0.000000     Total SCF correction =     0.000000

     Computing stress (Cartesian axis) and pressure

          total   stress  (Ry/bohr**3)                   (kbar)     P=        4.08
   0.00003947   0.00000000   0.00000000            5.81        0.00        0.00
   0.00000000   0.00003947  -0.00000000            0.00        5.81       -0.00
  -0.00000000   0.00000000   0.00000424           -0.00        0.00        0.62

[...]

     negative rho (up, down):  2.717E-05 0.000E+00
          total   stress  (Ry/bohr**3)                   (kbar)     P=        4.08
   0.00003947   0.00000000   0.00000000            5.81        0.00        0.00
   0.00000000   0.00003947  -0.00000000            0.00        5.81       -0.00
  -0.00000000   0.00000000   0.00000424           -0.00        0.00        0.62

     kinetic stress (kbar)   3821.48      0.00      0.00
                                0.00   3821.48      0.00
                                0.00      0.00   4359.46

     local   stress (kbar) -43264.61      0.00      0.00
                                0.00 -43264.61      0.00
                                0.00      0.00  42399.48

     nonloc. stress (kbar)   1349.85     -0.00     -0.00
                               -0.00   1349.85      0.00
                                0.00     -0.00   1217.81

     hartree stress (kbar)  19260.43     -0.00      0.00
                               -0.00  19260.43      0.00
                                0.00      0.00 -18917.08

     exc-cor stress (kbar)   -446.17     -0.00      0.00
                               -0.00   -446.17      0.00
                                0.00      0.00   -487.82

     corecor stress (kbar)   -541.01      0.00     -0.00
                                0.00   -541.01     -0.00
                               -0.00     -0.00   -528.81

     ewald   stress (kbar)  19825.82     -0.00      0.00
                               -0.00  19825.82      0.00
                                0.00      0.00 -28042.43

     hubbard stress (kbar)      0.00      0.00      0.00
                                0.00      0.00      0.00
                                0.00      0.00      0.00

     london  stress (kbar)      0.00      0.00      0.00
                                0.00      0.00      0.00
                                0.00      0.00      0.00

     DFT-D3  stress (kbar)      0.00      0.00      0.00
                                0.00      0.00      0.00
                                0.00      0.00      0.00

     XDM     stress (kbar)      0.00      0.00      0.00
                                0.00      0.00      0.00
                                0.00      0.00      0.00

     dft-nl  stress (kbar)      0.00      0.00      0.00
                                0.00      0.00      0.00
                                0.00      0.00      0.00

     TS-vdW  stress (kbar)      0.00      0.00      0.00
                                0.00      0.00      0.00
                                0.00      0.00      0.00

     Writing output data file ./Gr.save/

     General routines

     PAW routines

   This run was terminated on:  17:41:11   4Jun2020

   JOB DONE.