     Program PWSCF v.6.5 starts on 13May2020 at  1:29:17

     Current dimensions of program PWSCF are:
     Max number of different atomic species (ntypx) = 10
     Max number of k-points (npk) =  40000
     Max angular momentum in pseudopotentials (lmaxx) =  3
     Message from routine read_upf::
     Pseudo file C.pbe-n-kjpaw_psl.0.1.UPF has been fixed on the fly.
To avoid this message in the future, permanently fix
 your pseudo files following these instructions:
     Message from routine read_upf::
     Pseudo file B.pbe-n-kjpaw_psl.0.1.UPF has been fixed on the fly.
To avoid this message in the future, permanently fix
 your pseudo files following these instructions:
     Message from routine read_upf::
     Pseudo file N.pbe-n-kjpaw_psl.0.1.UPF has been fixed on the fly.
To avoid this message in the future, permanently fix
 your pseudo files following these instructions:
               file C.pbe-n-kjpaw_psl.0.1.UPF: wavefunction(s)  2P renormalized
               file B.pbe-n-kjpaw_psl.0.1.UPF: wavefunction(s)  2P renormalized
               file N.pbe-n-kjpaw_psl.0.1.UPF: wavefunction(s)  2P renormalized

     Parameters for DFT-D3 Dispersion Correction:
       Reference C6 values for interpolation:

         atom   Coordination number   C6
         B          0.000           214.36
         B          0.971           150.74
         B          1.944           106.23
         B          2.913            62.89
         B          4.586            56.06
         C          0.000            98.23
         C          0.987            86.49
         C          1.998            58.72
         C          2.999            51.56
         C          3.984            36.41
         N          0.000            50.54
         N          0.994            44.25
         N          2.014            39.35
         N          2.990            31.16

       Values used:

         atom   Coordination number  R0_AB[au]  C6      C8
         B          7.131            3.039     56.06   2233.91
         N          7.768            2.478     31.16    687.49
         C          8.222            2.750     36.41   1053.14
         C          6.715            2.750     36.41   1053.14

         Molecular C6 ( Ry / a.u.^6 ) =       628.81

     Title:
     Unstrained graphene optimization. 2 atoms fragment. VC-RELAX

     bravais-lattice index     =            4
     lattice parameter (alat)  =       4.6638  a.u.
     unit-cell volume          =     238.5022 (a.u.)^3
     number of atoms/cell      =            4
     number of atomic types    =            3
     number of electrons       =        16.00
     number of Kohn-Sham states=           12
     kinetic-energy cutoff     =      52.0000  Ry
     charge density cutoff     =     208.0000  Ry
     convergence threshold     =      1.0E-06
     mixing beta               =       0.7000
     number of iterations used =            8  plain     mixing
     Exchange-correlation= SLA PW PBX PBC
                           (   1   4   3   4   0   0   0)
     nstep                     =          200

     celldm(1)=   4.663844  celldm(2)=   0.000000  celldm(3)=   2.714749
     celldm(4)=   0.000000  celldm(5)=   0.000000  celldm(6)=   0.000000

     crystal axes: (cart. coord. in units of alat)
               a(1) = (   1.000000   0.000000   0.000000 )
               a(2) = (  -0.500000   0.866025   0.000000 )
               a(3) = (   0.000000   0.000000   2.714749 )

     reciprocal axes: (cart. coord. in units 2 pi/alat)
               b(1) = (  1.000000  0.577350 -0.000000 )
               b(2) = (  0.000000  1.154701  0.000000 )
               b(3) = (  0.000000 -0.000000  0.368358 )

     PseudoPot. # 1 for C  read from file:
     ./C.pbe-n-kjpaw_psl.0.1.UPF
     MD5 check sum: 430fe95172b1e11ef3f8ed03bac87931
     Pseudo is Projector augmented-wave + core cor, Zval =  4.0
     Generated using "atomic" code by A. Dal Corso v.5.0.99 svn rev. 10869
     Shape of augmentation charge: BESSEL
     Using radial grid of 1073 points,  4 beta functions with:
                l(1) =   0
                l(2) =   0
                l(3) =   1
                l(4) =   1
     Q(r) pseudized with 0 coefficients

     PseudoPot. # 2 for B  read from file:
     ./B.pbe-n-kjpaw_psl.0.1.UPF
     MD5 check sum: b4345a612e0782cca08559f453f3313f
     Pseudo is Projector augmented-wave + core cor, Zval =  3.0
     Generated using "atomic" code by A. Dal Corso v.5.0.99 svn rev. 10869
     Shape of augmentation charge: BESSEL
     Using radial grid of 1059 points,  4 beta functions with:
                l(1) =   0
                l(2) =   0
                l(3) =   1
                l(4) =   1
     Q(r) pseudized with 0 coefficients

     PseudoPot. # 3 for N  read from file:
     ./N.pbe-n-kjpaw_psl.0.1.UPF
     MD5 check sum: f73187c8b701007e77325f868c9291d7
     Pseudo is Projector augmented-wave + core cor, Zval =  5.0
     Generated using "atomic" code by A. Dal Corso v.5.0.99 svn rev. 10869
     Shape of augmentation charge: PSQ
     Using radial grid of 1085 points,  4 beta functions with:
                l(1) =   0
                l(2) =   0
                l(3) =   1
                l(4) =   1
     Q(r) pseudized with 0 coefficients

     atomic species   valence    mass     pseudopotential
        C              4.00    12.01100     C ( 1.00)
        B              3.00    10.81700     B ( 1.00)
        N              5.00    14.00700     N ( 1.00)

     No symmetry found

                                    s                        frac. trans.

      isym =  1     identity

 cryst.   s( 1) = (     1          0          0      )
                  (     0          1          0      )
                  (     0          0          1      )

 cart.    s( 1) = (  1.0000000  0.0000000  0.0000000 )
                  (  0.0000000  1.0000000  0.0000000 )
                  (  0.0000000  0.0000000  1.0000000 )

     point group C_1 (1)
     there are  1 classes
     the character table:

       E
A      1.00

     the symmetry operations in each class and the name of the first element:

     E        1
          identity

   Cartesian axes

     site n.     atom                  positions (alat units)
         1           B   tau(   1) = (   0.0066712   0.5813597   1.4824594  )
         2           N   tau(   2) = (   0.5066339   0.2926823   1.4822186  )
         3           C   tau(   3) = (  -0.0049921   0.0007249   1.9369010  )
         4           C   tau(   4) = (   0.0066712   0.5813597   1.9368322  )

   Crystallographic axes

     site n.     atom                  positions (cryst. coord.)
         1           B   tau(   1) = (  0.3423193  0.6712963  0.5460761  )
         2           N   tau(   2) = (  0.6756141  0.3379605  0.5459874  )
         3           C   tau(   3) = ( -0.0045735  0.0008371  0.7134734  )
         4           C   tau(   4) = (  0.3423193  0.6712963  0.7134480  )

     number of k points=    10  Methfessel-Paxton smearing, width (Ry)=  0.0200
                       cart. coord. in units 2pi/alat
        k(    1) = (   0.0000000   0.0000000   0.0000000), wk =   0.1250000
        k(    2) = (   0.0000000   0.2886751   0.0000000), wk =   0.2500000
        k(    3) = (   0.0000000  -0.5773503   0.0000000), wk =   0.1250000
        k(    4) = (   0.2500000   0.4330127   0.0000000), wk =   0.2500000
        k(    5) = (  -0.2500000   0.1443376   0.0000000), wk =   0.2500000
        k(    6) = (   0.2500000   0.1443376   0.0000000), wk =   0.2500000
        k(    7) = (   0.5000000  -0.2886751   0.0000000), wk =   0.1250000
        k(    8) = (  -0.5000000  -0.2886751   0.0000000), wk =   0.1250000
        k(    9) = (  -0.2500000   0.4330127   0.0000000), wk =   0.2500000
        k(   10) = (   0.5000000  -0.0000000   0.0000000), wk =   0.2500000

                       cryst. coord.
        k(    1) = (   0.0000000   0.0000000   0.0000000), wk =   0.1250000
        k(    2) = (   0.0000000   0.2500000   0.0000000), wk =   0.2500000
        k(    3) = (   0.0000000  -0.5000000   0.0000000), wk =   0.1250000
        k(    4) = (   0.2500000   0.2500000   0.0000000), wk =   0.2500000
        k(    5) = (  -0.2500000   0.2500000   0.0000000), wk =   0.2500000
        k(    6) = (   0.2500000   0.0000000   0.0000000), wk =   0.2500000
        k(    7) = (   0.5000000  -0.5000000   0.0000000), wk =   0.1250000
        k(    8) = (  -0.5000000   0.0000000   0.0000000), wk =   0.1250000
        k(    9) = (  -0.2500000   0.5000000   0.0000000), wk =   0.2500000
        k(   10) = (   0.5000000  -0.2500000   0.0000000), wk =   0.2500000

     Check: negative core charge=   -0.000045

     Initial potential from superposition of free atoms

     starting charge   15.99963, renormalised to   16.00000
     Starting wfcs are   16 randomized atomic wfcs

     Self-consistent Calculation

     iteration #  1     ecut=    52.00 Ry     beta= 0.70
     Davidson diagonalization with overlap
     ethr =  1.00E-02,  avg # of iterations =  3.7

          k = 0.0000 0.0000 0.0000     band energies (ev):

   -25.8542 -13.2303  -6.7884  -6.6328  -6.1085  -2.8900  -2.7251   1.5021
     6.4720   9.8258  10.7581  11.3216

     occupation numbers
     1.0000   1.0000   1.0000   1.0000   1.0000   1.0000   1.0000   1.0000
    -0.0000  -0.0000  -0.0000  -0.0000

[...]

          k =-0.2500 0.1443 0.0000     band energies (ev):

[...]

     the Fermi energy is     3.0102 ev

!    total energy              =     -74.95536115 Ry
     Harris-Foulkes estimate   =     -75.79947715 Ry
     estimated scf accuracy    <       1.17200152 Ry

     total all-electron energy =      -310.021713 Ry

     The total energy is the sum of the following terms:

     one-electron contribution =    -130.82761288 Ry
     hartree contribution      =      73.95239506 Ry
     xc contribution           =     -18.06944151 Ry
     ewald contribution        =      23.67059048 Ry
     DFT-D3 Dispersion         =      -0.02033375 Ry
     scf correction            =       3.34695257 Ry
     one-center paw contrib.   =     -27.00815976 Ry
      -> PAW hartree energy AE =      48.73578945 Ry
      -> PAW hartree energy PS =     -48.65450826 Ry
      -> PAW xc energy AE      =     -44.66004290 Ry
      -> PAW xc energy PS      =      17.57060195 Ry
      -> total E_H with PAW    =      74.03367625 Ry
      -> total E_XC with PAW   =     -45.15888246 Ry
     smearing contrib. (-TS)   =       0.00024863 Ry

[...]

     End of self-consistent calculation

          k = 0.0000 0.0000 0.0000 (  1541 PWs)   bands (ev):

[...]

          k =-0.2500 0.1443 0.0000 (  1519 PWs)   bands (ev):

[...]

     one-electron contribution =    -125.26739081 Ry
     hartree contribution      =      71.02579457 Ry
     xc contribution           =     -17.83454366 Ry
     ewald contribution        =      23.67059048 Ry
     DFT-D3 Dispersion         =      -0.02033375 Ry
     one-center paw contrib.   =     -26.94648395 Ry
      -> PAW hartree energy AE =      57.42489167 Ry
      -> PAW hartree energy PS =     -57.34410300 Ry
      -> PAW xc energy AE      =     -46.54484070 Ry
      -> PAW xc energy PS      =      19.51756807 Ry
[...]
C             0.0038353343        0.0031432354        0.8821006547
C             0.3371740062        0.6698159132        0.8821456928

     Writing output data file ./Gr_BN.save/
     NEW-OLD atomic charge density approx. for the potential

     Check: negative core charge=   -0.000052
     extrapolated charge   16.00171, renormalised to   16.00000

[...]

     Threshold (ethr) on eigenvalues was too large:
     Diagonalizing with lowered threshold

     Davidson diagonalization with overlap
     ethr =  1.44E-08,  avg # of iterations =  3.1

[...]

     DFT-D3 dispersion Force =     0.000046
     SCF correction compared to forces is large: reduce conv_thr to get better values

[...]

     bfgs converged in  32 scf cycles and  29 bfgs steps
     (criteria: energy <  1.0E-05 Ry, force <  1.0E-04Ry/Bohr, cell <  5.0E-01kbar)

     End of BFGS Geometry Optimization

     Final enthalpy =     -76.7772607122 Ry
Begin final coordinates
     new unit-cell volume =    262.25220 a.u.^3 (    38.86177 Ang^3 )
     density =      2.08716 g/cm^3

CELL_PARAMETERS (alat=  4.66384410)
   1.006548260  -0.000041741   0.007895761
  -0.503262609   0.871740539  -0.001251225
   0.012770252   0.005828359   2.946409073

ATOMIC_POSITIONS (crystal)
B             0.3406726002        0.6708866274        0.3773536897
N             0.6739973030        0.3375443697        0.3773848769
C             0.0038353343        0.0031432354        0.8821006547
C             0.3371740062        0.6698159132        0.8821456928
End final coordinates

     Writing output data file ./Gr_BN.save/

     Final scf calculation at the relaxed structure.
     The G-vectors are recalculated for the final unit cell
     Results may differ from those at the preceding step.

     Title:
     Unstrained graphene optimization. 2 atoms fragment. VC-RELAX

     bravais-lattice index     =            4
     lattice parameter (alat)  =       4.6638  a.u.
     unit-cell volume          =     262.2522 (a.u.)^3
     number of atoms/cell      =            4
     number of atomic types    =            3
     number of electrons       =        16.00
     number of Kohn-Sham states=           12
     kinetic-energy cutoff     =      52.0000  Ry
     charge density cutoff     =     208.0000  Ry
     convergence threshold     =      1.0E-08
     mixing beta               =       0.7000
     number of iterations used =            8  plain     mixing
     Exchange-correlation= SLA PW PBX PBC
                           (   1   4   3   4   0   0   0)

     celldm(1)=   4.663844  celldm(2)=   0.000000  celldm(3)=   2.714749
     celldm(4)=   0.000000  celldm(5)=   0.000000  celldm(6)=   0.000000

     crystal axes: (cart. coord. in units of alat)
               a(1) = (   1.006548  -0.000042   0.007896 )
               a(2) = (  -0.503263   0.871741  -0.001251 )
               a(3) = (   0.012770   0.005828   2.946409 )

     reciprocal axes: (cart. coord. in units 2 pi/alat)
               b(1) = (  0.993561  0.573583 -0.005441 )
               b(2) = (  0.000065  1.147165 -0.002270 )
               b(3) = ( -0.002663 -0.001050  0.339410 )

     PseudoPot. # 1 for C  read from file:
     ./C.pbe-n-kjpaw_psl.0.1.UPF
     MD5 check sum: 430fe95172b1e11ef3f8ed03bac87931
     Pseudo is Projector augmented-wave + core cor, Zval =  4.0
     Generated using "atomic" code by A. Dal Corso v.5.0.99 svn rev. 10869
     Shape of augmentation charge: BESSEL
     Using radial grid of 1073 points,  4 beta functions with:
                l(1) =   0
                l(2) =   0
                l(3) =   1
                l(4) =   1
     Q(r) pseudized with 0 coefficients

     PseudoPot. # 2 for B  read from file:
     ./B.pbe-n-kjpaw_psl.0.1.UPF
     MD5 check sum: b4345a612e0782cca08559f453f3313f
     Pseudo is Projector augmented-wave + core cor, Zval =  3.0
     Generated using "atomic" code by A. Dal Corso v.5.0.99 svn rev. 10869
     Shape of augmentation charge: BESSEL
     Using radial grid of 1059 points,  4 beta functions with:
                l(1) =   0
                l(2) =   0
                l(3) =   1
                l(4) =   1
     Q(r) pseudized with 0 coefficients

     PseudoPot. # 3 for N  read from file:
     ./N.pbe-n-kjpaw_psl.0.1.UPF
     MD5 check sum: f73187c8b701007e77325f868c9291d7
     Pseudo is Projector augmented-wave + core cor, Zval =  5.0
     Generated using "atomic" code by A. Dal Corso v.5.0.99 svn rev. 10869
     Shape of augmentation charge: PSQ
     Using radial grid of 1085 points,  4 beta functions with:
                l(1) =   0
                l(2) =   0
                l(3) =   1
                l(4) =   1
     Q(r) pseudized with 0 coefficients

     atomic species   valence    mass     pseudopotential
        C              4.00    12.01100     C ( 1.00)
        B              3.00    10.81700     B ( 1.00)
        N              5.00    14.00700     N ( 1.00)

     No symmetry found

                                    s                        frac. trans.

      isym =  1     identity

 cryst.   s( 1) = (     1          0          0      )
                  (     0          1          0      )
                  (     0          0          1      )

 cart.    s( 1) = (  1.0000000  0.0000000  0.0000000 )
                  (  0.0000000  1.0000000  0.0000000 )
                  (  0.0000000  0.0000000  1.0000000 )

     point group C_1 (1)
     there are  1 classes
     the character table:

       E
A      1.00

     the symmetry operations in each class and the name of the first element:

     E        1
          identity

   Cartesian axes

     site n.     atom                  positions (alat units)
         1           B   tau(   1) = (   0.0100902   0.5870242   1.1136888  )
         2           N   tau(   2) = (   0.5133567   0.2964225   1.1168296  )
         3           C   tau(   3) = (   0.0135432   0.0078811   2.5990557  )
         4           C   tau(   4) = (   0.0135538   0.5890331   2.6009862  )

   Crystallographic axes

     site n.     atom                  positions (cryst. coord.)
         1           B   tau(   1) = (  0.3406726  0.6708866  0.3773537  )
         2           N   tau(   2) = (  0.6739973  0.3375444  0.3773849  )
         3           C   tau(   3) = (  0.0038353  0.0031432  0.8821007  )
         4           C   tau(   4) = (  0.3371740  0.6698159  0.8821457  )

     number of k points=    10  Methfessel-Paxton smearing, width (Ry)=  0.0200
                       cart. coord. in units 2pi/alat
        k(    1) = (   0.0000000   0.0000000   0.0000000), wk =   0.1250000
        k(    2) = (   0.0000163   0.2867912  -0.0005674), wk =   0.2500000
        k(    3) = (  -0.0000327  -0.5735824   0.0011348), wk =   0.1250000
        k(    4) = (   0.2484065   0.4301868  -0.0019276), wk =   0.2500000
        k(    5) = (  -0.2483739   0.1433956   0.0007928), wk =   0.2500000
        k(    6) = (   0.2483902   0.1433956  -0.0013602), wk =   0.2500000
        k(    7) = (   0.4967477  -0.2867911  -0.0015857), wk =   0.1250000
        k(    8) = (  -0.4967804  -0.2867913   0.0027204), wk =   0.1250000
        k(    9) = (  -0.2483575   0.4301868   0.0002255), wk =   0.2500000
        k(   10) = (   0.4967641   0.0000001  -0.0021531), wk =   0.2500000

                       cryst. coord.
        k(    1) = (   0.0000000   0.0000000   0.0000000), wk =   0.1250000
        k(    2) = (  -0.0000000   0.2500000   0.0000000), wk =   0.2500000
        k(    3) = (   0.0000000  -0.5000000  -0.0000000), wk =   0.1250000
        k(    4) = (   0.2500000   0.2500000  -0.0000000), wk =   0.2500000
        k(    5) = (  -0.2500000   0.2500000   0.0000000), wk =   0.2500000
        k(    6) = (   0.2500000  -0.0000000  -0.0000000), wk =   0.2500000
        k(    7) = (   0.5000000  -0.5000000  -0.0000000), wk =   0.1250000
        k(    8) = (  -0.5000000   0.0000000   0.0000000), wk =   0.1250000
        k(    9) = (  -0.2500000   0.5000000   0.0000000), wk =   0.2500000
        k(   10) = (   0.5000000  -0.2500000   0.0000000), wk =   0.2500000

     Check: negative core charge=   -0.000046

     Initial potential from superposition of free atoms

     starting charge   15.99963, renormalised to   16.00000
     Starting wfcs are   16 randomized atomic wfcs

     Self-consistent Calculation

     iteration #  1     ecut=    52.00 Ry     beta= 0.70
     Davidson diagonalization with overlap
     c_bands:  1 eigenvalues not converged
     c_bands:  1 eigenvalues not converged
     c_bands:  1 eigenvalues not converged
     ethr =  1.00E-06,  avg # of iterations = 16.9

[...]

          k =-0.2484 0.4302 0.0002     band energies (ev):

[...]

          k = 0.4968 0.0000-0.0022     band energies (ev):

[...]

     one-electron contribution =     -19.69674349 Ry
     hartree contribution      =      17.87179004 Ry
     xc contribution           =     -16.71413853 Ry
     ewald contribution        =     -31.34265286 Ry
     DFT-D3 Dispersion         =      -0.02337261 Ry
     scf correction            =       0.00005725 Ry
     one-center paw contrib.   =     -26.87246718 Ry
      -> PAW hartree energy AE =      46.64709808 Ry
      -> PAW hartree energy PS =     -46.58330683 Ry
      -> PAW xc energy AE      =     -43.91582656 Ry
      -> PAW xc energy PS      =      16.97956813 Ry
      -> total E_H with PAW    =      17.93558130 Ry
      -> total E_XC with PAW   =     -43.65039697 Ry
     smearing contrib. (-TS)   =       0.00000000 Ry

     iteration # 12     ecut=    52.00 Ry     beta= 0.70
     Davidson diagonalization with overlap
     ethr =  9.50E-11,  avg # of iterations =  2.8

     End of self-consistent calculation

[...]

          k =-0.2484 0.4302 0.0002 (  1658 PWs)   bands (ev):

[...]

          k = 0.4968 0.0000-0.0022 (  1656 PWs)   bands (ev):

   -10.4714  -9.4014  -4.7646  -3.3733  -3.1229  -1.6113   2.6882   3.4910
     8.4386  10.2144  14.7124  17.1184

     occupation numbers
     1.0000   1.0000   1.0000   1.0000   1.0000   1.0000   1.0000   1.0000
    -0.0000  -0.0000  -0.0000  -0.0000

     the Fermi energy is     5.7137 ev

!    total energy              =     -76.77752738 Ry
     Harris-Foulkes estimate   =     -76.77752738 Ry
     estimated scf accuracy    <          2.6E-09 Ry

     total all-electron energy =      -311.843880 Ry

     The total energy is the sum of the following terms:

     one-electron contribution =     -19.69649068 Ry
     hartree contribution      =      17.87152969 Ry
     xc contribution           =     -16.71407488 Ry
     ewald contribution        =     -31.34265286 Ry
     DFT-D3 Dispersion         =      -0.02337261 Ry
     one-center paw contrib.   =     -26.87246604 Ry
      -> PAW hartree energy AE =      46.64629462 Ry
      -> PAW hartree energy PS =     -46.58250401 Ry
      -> PAW xc energy AE      =     -43.91565365 Ry
      -> PAW xc energy PS      =      16.97939700 Ry
      -> total E_H with PAW    =      17.93532030 Ry
      -> total E_XC with PAW   =     -43.65033153 Ry
     smearing contrib. (-TS)   =       0.00000000 Ry

     convergence has been achieved in  12 iterations

     Forces acting on atoms (cartesian axes, Ry/au):

     atom    1 type  2   force =    -0.00000896   -0.00004354    0.00078935
     atom    2 type  3   force =    -0.00002328    0.00002440   -0.00013588
     atom    3 type  1   force =     0.00003641    0.00003378   -0.00005808
     atom    4 type  1   force =    -0.00000417   -0.00001464   -0.00059539
     The non-local contrib.  to forces
     atom    1 type  2   force =     0.00002533   -0.00001557    0.00010454
     atom    2 type  3   force =     0.00002906    0.00003977   -0.00022444
     atom    3 type  1   force =     0.00003738    0.00003277    0.00024492
     atom    4 type  1   force =    -0.00002016   -0.00002968   -0.00060943
     The ionic contribution  to forces
     atom    1 type  2   force =    -0.00116652   -0.00056507    0.14858415
     atom    2 type  3   force =    -0.00201986   -0.00069161    0.25144844
     atom    3 type  1   force =     0.00173608    0.00074654   -0.20237547
     atom    4 type  1   force =     0.00145030    0.00051015   -0.19765712
     The local contribution  to forces
     atom    1 type  2   force =     0.00115044    0.00056375   -0.14855459
     atom    2 type  3   force =     0.00196342    0.00065966   -0.25115109
     atom    3 type  1   force =    -0.00173297   -0.00074144    0.20222482
     atom    4 type  1   force =    -0.00142907   -0.00050170    0.19791900
     The core correction contribution to forces
     atom    1 type  2   force =    -0.00002996   -0.00004440    0.00088212
     atom    2 type  3   force =    -0.00000562   -0.00000383   -0.00001158
     atom    3 type  1   force =    -0.00001758   -0.00002180    0.00007227
     atom    4 type  1   force =    -0.00001649   -0.00001263   -0.00000225
     The Hubbard contrib.    to forces
     atom    1 type  2   force =     0.00000000    0.00000000    0.00000000
     atom    2 type  3   force =     0.00000000    0.00000000    0.00000000
     atom    3 type  1   force =     0.00000000    0.00000000    0.00000000
     atom    4 type  1   force =     0.00000000    0.00000000    0.00000000
     The SCF correction term to forces
     atom    1 type  2   force =    -0.00000027   -0.00000028    0.00001926
     atom    2 type  3   force =    -0.00000278    0.00000223    0.00003670
     atom    3 type  1   force =     0.00000221    0.00000007   -0.00003766
     atom    4 type  1   force =    -0.00000184    0.00000086   -0.00003777

     DFT-D3 dispersion contribution to forces:
     atom    1 type  2   force =    -0.00000022   -0.00000001   -0.00002743
     atom    2 type  3   force =     0.00000028    0.00000013   -0.00001521
     atom    3 type  1   force =    -0.00000093   -0.00000042    0.00003174
     atom    4 type  1   force =     0.00000086    0.00000031    0.00001089

     Total force =     0.001003     Total SCF correction =     0.000068

     DFT-D3 dispersion Force =     0.000046

     Computing stress (Cartesian axis) and pressure

          total   stress  (Ry/bohr**3)                   (kbar)     P=        0.60
   0.00000105   0.00000011   0.00000106            0.15        0.02        0.16
   0.00000011   0.00000118   0.00000051            0.02        0.17        0.08
   0.00000106   0.00000051   0.00000995            0.16        0.08        1.46

     kinetic stress (kbar)  10667.64      0.06    -10.71
                                0.06  10667.54     -4.21
                              -10.71     -4.21  12057.44

     local   stress (kbar) -24991.30      0.98   -359.59
                                0.98 -24993.64   -141.78
                             -359.59   -141.78  21009.46

     nonloc. stress (kbar)   3904.49      0.00      2.47
                                0.00   3904.47      0.98
                                2.47      0.98   3590.73

     hartree stress (kbar)   8395.48     -0.33    118.32
                               -0.33   8396.25     46.64
                              118.32     46.64  -6767.06

     exc-cor stress (kbar)  -1386.25      0.00      0.83
                                0.00  -1386.24      0.33
                                0.83      0.33  -1493.39

     corecor stress (kbar)  -1331.92     -0.03     -0.27
                               -0.03  -1331.87     -0.10
                               -0.27     -0.10  -1294.33

     ewald   stress (kbar)   4748.85     -0.66    249.01
                               -0.66   4750.50     98.18
                              249.01     98.18 -27080.37

     hubbard stress (kbar)      0.00      0.00      0.00
                                0.00      0.00      0.00
                                0.00      0.00      0.00

     london  stress (kbar)      0.00      0.00      0.00
                                0.00      0.00      0.00
                                0.00      0.00      0.00

     DFT-D3  stress (kbar)     -6.84     -0.00      0.10
                               -0.00     -6.83      0.04
                                0.10      0.04    -21.02

     XDM     stress (kbar)      0.00      0.00      0.00
                                0.00      0.00      0.00
                                0.00      0.00      0.00

     dft-nl  stress (kbar)      0.00      0.00      0.00
                                0.00      0.00      0.00
                                0.00      0.00      0.00

     TS-vdW  stress (kbar)      0.00      0.00      0.00
                                0.00      0.00      0.00
                                0.00      0.00      0.00

     Writing output data file ./Gr_BN.save/

     General routines

     PAW routines

   This run was terminated on:   1:36:48  13May2020

   JOB DONE.