     Program PWSCF v.6.5 starts on  4Jun2020 at 19:19:14

     Current dimensions of program PWSCF are:
     Max number of different atomic species (ntypx) = 10
     Max number of k-points (npk) =  40000
     Max angular momentum in pseudopotentials (lmaxx) =  3
     Message from routine read_upf::
     Pseudo file C.pbe-n-kjpaw_psl.0.1.UPF has been fixed on the fly.
To avoid this message in the future, permanently fix
 your pseudo files following these instructions:
     Message from routine read_upf::
     Pseudo file B.pbe-n-kjpaw_psl.0.1.UPF has been fixed on the fly.
To avoid this message in the future, permanently fix
 your pseudo files following these instructions:
     Message from routine read_upf::
     Pseudo file N.pbe-n-kjpaw_psl.0.1.UPF has been fixed on the fly.
To avoid this message in the future, permanently fix
 your pseudo files following these instructions:
               file C.pbe-n-kjpaw_psl.0.1.UPF: wavefunction(s)  2P renormalized
               file B.pbe-n-kjpaw_psl.0.1.UPF: wavefunction(s)  2P renormalized
               file N.pbe-n-kjpaw_psl.0.1.UPF: wavefunction(s)  2P renormalized

     Parameters for DFT-D3 Dispersion Correction:
       Reference C6 values for interpolation:

         atom   Coordination number   C6
         B          0.000           214.36
         B          0.971           150.74
         B          1.944           106.23
         B          2.913            62.89
         B          4.586            56.06
         C          0.000            98.23
         C          0.987            86.49
         C          1.998            58.72
         C          2.999            51.56
         C          3.984            36.41
         N          0.000            50.54
         N          0.994            44.25
         N          2.014            39.35
         N          2.990            31.16

       Values used:

         atom   Coordination number  R0_AB[au]  C6      C8
         B          3.426            3.039     62.81   2502.81
         N          3.178            2.478     31.20    688.35
         C          3.321            2.750     48.15   1392.47
         C          3.322            2.750     48.13   1391.98

         Molecular C6 ( Ry / a.u.^6 ) =       746.72

     Title:
     Unstrained graphene optimization. 2 atoms fragment. VC-RELAX

     bravais-lattice index     =            4
     lattice parameter (alat)  =       4.6638  a.u.
     unit-cell volume          =     238.5022 (a.u.)^3
     number of atoms/cell      =            4
     number of atomic types    =            3
     number of electrons       =        16.00
     number of Kohn-Sham states=           12
     kinetic-energy cutoff     =      52.0000  Ry
     charge density cutoff     =     208.0000  Ry
     convergence threshold     =      1.0E-06
     mixing beta               =       0.7000
     number of iterations used =            8  plain     mixing
     Exchange-correlation= SLA PW PBX PBC
                           (   1   4   3   4   0   0   0)
     nstep                     =          200

     celldm(1)=   4.663844  celldm(2)=   0.000000  celldm(3)=   2.714749
     celldm(4)=   0.000000  celldm(5)=   0.000000  celldm(6)=   0.000000

     crystal axes: (cart. coord. in units of alat)
               a(1) = (   1.000000   0.000000   0.000000 )
               a(2) = (  -0.500000   0.866025   0.000000 )
               a(3) = (   0.000000   0.000000   2.714749 )

     reciprocal axes: (cart. coord. in units 2 pi/alat)
               b(1) = (  1.000000  0.577350 -0.000000 )
               b(2) = (  0.000000  1.154701  0.000000 )
               b(3) = (  0.000000 -0.000000  0.368358 )

     PseudoPot. # 1 for C  read from file:
     ./C.pbe-n-kjpaw_psl.0.1.UPF
     MD5 check sum: 430fe95172b1e11ef3f8ed03bac87931
     Pseudo is Projector augmented-wave + core cor, Zval =  4.0
     Generated using "atomic" code by A. Dal Corso v.5.0.99 svn rev. 10869
     Shape of augmentation charge: BESSEL
     Using radial grid of 1073 points,  4 beta functions with:
                l(1) =   0
                l(2) =   0
                l(3) =   1
                l(4) =   1
     Q(r) pseudized with 0 coefficients

     PseudoPot. # 2 for B  read from file:
     ./B.pbe-n-kjpaw_psl.0.1.UPF
     MD5 check sum: b4345a612e0782cca08559f453f3313f
     Pseudo is Projector augmented-wave + core cor, Zval =  3.0
     Generated using "atomic" code by A. Dal Corso v.5.0.99 svn rev. 10869
     Shape of augmentation charge: BESSEL
     Using radial grid of 1059 points,  4 beta functions with:
                l(1) =   0
                l(2) =   0
                l(3) =   1
                l(4) =   1
     Q(r) pseudized with 0 coefficients

     PseudoPot. # 3 for N  read from file:
     ./N.pbe-n-kjpaw_psl.0.1.UPF
     MD5 check sum: f73187c8b701007e77325f868c9291d7
     Pseudo is Projector augmented-wave + core cor, Zval =  5.0
     Generated using "atomic" code by A. Dal Corso v.5.0.99 svn rev. 10869
     Shape of augmentation charge: PSQ
     Using radial grid of 1085 points,  4 beta functions with:
                l(1) =   0
                l(2) =   0
                l(3) =   1
                l(4) =   1
     Q(r) pseudized with 0 coefficients

     atomic species   valence    mass     pseudopotential
        C              4.00    12.01100     C ( 1.00)
        B              3.00    10.81700     B ( 1.00)
        N              5.00    14.00700     N ( 1.00)

     No symmetry found

                                    s                        frac. trans.

      isym =  1     identity

 cryst.   s( 1) = (     1          0          0      )
                  (     0          1          0      )
                  (     0          0          1      )

 cart.    s( 1) = (  1.0000000  0.0000000  0.0000000 )
                  (  0.0000000  1.0000000  0.0000000 )
                  (  0.0000000  0.0000000  1.0000000 )

     point group C_1 (1)
     there are  1 classes
     the character table:

       E
A      1.00

     the symmetry operations in each class and the name of the first element:

     E        1
          identity

   Cartesian axes

     site n.     atom                  positions (alat units)
         1           B   tau(   1) = (   0.0066712   0.5813597   1.2109846  )
         2           N   tau(   2) = (   0.5066339   0.2926823   1.2107437  )
         3           C   tau(   3) = (   0.0041550   0.0007249   2.4798508  )
         4           C   tau(   4) = (   0.0066712   0.5813597   2.4797819  )

   Crystallographic axes

     site n.     atom                  positions (cryst. coord.)
         1           B   tau(   1) = (  0.3423193  0.6712963  0.4460761  )
         2           N   tau(   2) = (  0.6756141  0.3379605  0.4459874  )
         3           C   tau(   3) = (  0.0045735  0.0008371  0.9134734  )
         4           C   tau(   4) = (  0.3423193  0.6712963  0.9134480  )

     number of k points=    10  Methfessel-Paxton smearing, width (Ry)=  0.0200
                       cart. coord. in units 2pi/alat
        k(    1) = (   0.0000000   0.0000000   0.0000000), wk =   0.1250000
        k(    2) = (   0.0000000   0.2886751   0.0000000), wk =   0.2500000
        k(    3) = (   0.0000000  -0.5773503   0.0000000), wk =   0.1250000
        k(    4) = (   0.2500000   0.4330127   0.0000000), wk =   0.2500000
        k(    5) = (  -0.2500000   0.1443376   0.0000000), wk =   0.2500000
        k(    6) = (   0.2500000   0.1443376   0.0000000), wk =   0.2500000
        k(    7) = (   0.5000000  -0.2886751   0.0000000), wk =   0.1250000
        k(    8) = (  -0.5000000  -0.2886751   0.0000000), wk =   0.1250000
        k(    9) = (  -0.2500000   0.4330127   0.0000000), wk =   0.2500000
        k(   10) = (   0.5000000  -0.0000000   0.0000000), wk =   0.2500000

                       cryst. coord.
        k(    1) = (   0.0000000   0.0000000   0.0000000), wk =   0.1250000
        k(    2) = (   0.0000000   0.2500000   0.0000000), wk =   0.2500000
        k(    3) = (   0.0000000  -0.5000000   0.0000000), wk =   0.1250000
        k(    4) = (   0.2500000   0.2500000   0.0000000), wk =   0.2500000
        k(    5) = (  -0.2500000   0.2500000   0.0000000), wk =   0.2500000
        k(    6) = (   0.2500000   0.0000000   0.0000000), wk =   0.2500000
        k(    7) = (   0.5000000  -0.5000000   0.0000000), wk =   0.1250000
        k(    8) = (  -0.5000000   0.0000000   0.0000000), wk =   0.1250000
        k(    9) = (  -0.2500000   0.5000000   0.0000000), wk =   0.2500000
        k(   10) = (   0.5000000  -0.2500000   0.0000000), wk =   0.2500000

     Check: negative core charge=   -0.000048

     Initial potential from superposition of free atoms

     starting charge   15.99963, renormalised to   16.00000
     Starting wfcs are   16 randomized atomic wfcs

     Self-consistent Calculation

     iteration #  1     ecut=    52.00 Ry     beta= 0.70
     Davidson diagonalization with overlap
     ethr =  1.00E-02,  avg # of iterations =  3.8

          k = 0.0000 0.0000 0.0000     band energies (ev):

   -15.9601 -14.6243  -2.8395  -1.1862  -0.1442  -0.1423   1.1081   1.4860
    10.5746  12.7297  13.1566  14.3688

     occupation numbers
     1.0000   1.0000   1.0000   1.0000   1.0000   1.0000   1.0000   1.0000
    -0.0000  -0.0000  -0.0000  -0.0000

[...]

          k =-0.2500 0.1443 0.0000     band energies (ev):

[...]

     the Fermi energy is     5.0434 ev

!    total energy              =     -76.59461469 Ry
     Harris-Foulkes estimate   =     -76.97592074 Ry
     estimated scf accuracy    <       0.58272511 Ry

     total all-electron energy =      -311.660967 Ry

     The total energy is the sum of the following terms:

     one-electron contribution =     -15.90002740 Ry
     hartree contribution      =      16.40232737 Ry
     xc contribution           =     -16.91068094 Ry
     ewald contribution        =     -34.51187014 Ry
     DFT-D3 Dispersion         =      -0.02654533 Ry
     scf correction            =       1.30221601 Ry
     one-center paw contrib.   =     -26.95003427 Ry
      -> PAW hartree energy AE =      41.71590563 Ry
      -> PAW hartree energy PS =     -41.64772764 Ry
      -> PAW xc energy AE      =     -42.78528718 Ry
      -> PAW xc energy PS      =      15.76707493 Ry
      -> total E_H with PAW    =      16.47050535 Ry
      -> total E_XC with PAW   =     -43.92889319 Ry
     smearing contrib. (-TS)   =       0.00000000 Ry

[...]

     iteration #  5     ecut=    52.00 Ry     beta= 0.70
     Davidson diagonalization with overlap
     c_bands:  1 eigenvalues not converged
     c_bands:  1 eigenvalues not converged
     ethr =  8.28E-06,  avg # of iterations =  5.7

[...]

     End of self-consistent calculation

          k = 0.0000 0.0000 0.0000 (  1541 PWs)   bands (ev):

[...]

          k =-0.2500 0.1443 0.0000 (  1519 PWs)   bands (ev):

[...]

     one-electron contribution =     -14.38773281 Ry
     hartree contribution      =      15.80953758 Ry
     xc contribution           =     -16.78200742 Ry
     ewald contribution        =     -34.51187014 Ry
     DFT-D3 Dispersion         =      -0.02654533 Ry
[...]
N             0.6725828259        0.3359525655        0.4276804136
C             0.0098325729        0.0047471709        0.9318229591
C             0.3431686662        0.6714139443        0.9318541222

     Writing output data file ./Gr_BN.save/
     NEW-OLD atomic charge density approx. for the potential

     Check: negative core charge=   -0.000052
     extrapolated charge   15.99446, renormalised to   16.00000

[...]

     Threshold (ethr) on eigenvalues was too large:
     Diagonalizing with lowered threshold

     Davidson diagonalization with overlap
     ethr =  1.31E-08,  avg # of iterations =  2.6

[...]

     DFT-D3 dispersion Force =     0.000041
     SCF correction compared to forces is large: reduce conv_thr to get better values

[...]

     bfgs converged in  36 scf cycles and  34 bfgs steps
     (criteria: energy <  1.0E-05 Ry, force <  1.0E-04Ry/Bohr, cell <  5.0E-01kbar)

     End of BFGS Geometry Optimization

     Final enthalpy =     -76.7772594621 Ry
Begin final coordinates
     new unit-cell volume =    262.28808 a.u.^3 (    38.86708 Ang^3 )
     density =      2.08687 g/cm^3

CELL_PARAMETERS (alat=  4.66384410)
   1.006579972  -0.000000706   0.001132234
  -0.503290708   0.871730205   0.000244683
   0.002869708   0.002374150   2.946572177

ATOMIC_POSITIONS (crystal)
B             0.3392422394        0.6692764649        0.4276274192
N             0.6725828259        0.3359525655        0.4276804136
C             0.0098325729        0.0047471709        0.9318229591
C             0.3431686662        0.6714139443        0.9318541222
End final coordinates

     Writing output data file ./Gr_BN.save/

     Final scf calculation at the relaxed structure.
     The G-vectors are recalculated for the final unit cell
     Results may differ from those at the preceding step.

     Title:
     Unstrained graphene optimization. 2 atoms fragment. VC-RELAX

     bravais-lattice index     =            4
     lattice parameter (alat)  =       4.6638  a.u.
     unit-cell volume          =     262.2881 (a.u.)^3
     number of atoms/cell      =            4
     number of atomic types    =            3
     number of electrons       =        16.00
     number of Kohn-Sham states=           12
     kinetic-energy cutoff     =      52.0000  Ry
     charge density cutoff     =     208.0000  Ry
     convergence threshold     =      1.0E-08
     mixing beta               =       0.7000
     number of iterations used =            8  plain     mixing
     Exchange-correlation= SLA PW PBX PBC
                           (   1   4   3   4   0   0   0)

     celldm(1)=   4.663844  celldm(2)=   0.000000  celldm(3)=   2.714749
     celldm(4)=   0.000000  celldm(5)=   0.000000  celldm(6)=   0.000000

     crystal axes: (cart. coord. in units of alat)
               a(1) = (   1.006580  -0.000001   0.001132 )
               a(2) = (  -0.503291   0.871730   0.000245 )
               a(3) = (   0.002870   0.002374   2.946572 )

     reciprocal axes: (cart. coord. in units 2 pi/alat)
               b(1) = (  0.993465  0.573574 -0.001430 )
               b(2) = (  0.000002  1.147145 -0.000924 )
               b(3) = ( -0.000382 -0.000316  0.339378 )

     PseudoPot. # 1 for C  read from file:
     ./C.pbe-n-kjpaw_psl.0.1.UPF
     MD5 check sum: 430fe95172b1e11ef3f8ed03bac87931
     Pseudo is Projector augmented-wave + core cor, Zval =  4.0
     Generated using "atomic" code by A. Dal Corso v.5.0.99 svn rev. 10869
     Shape of augmentation charge: BESSEL
     Using radial grid of 1073 points,  4 beta functions with:
                l(1) =   0
                l(2) =   0
                l(3) =   1
                l(4) =   1
     Q(r) pseudized with 0 coefficients

     PseudoPot. # 2 for B  read from file:
     ./B.pbe-n-kjpaw_psl.0.1.UPF
     MD5 check sum: b4345a612e0782cca08559f453f3313f
     Pseudo is Projector augmented-wave + core cor, Zval =  3.0
     Generated using "atomic" code by A. Dal Corso v.5.0.99 svn rev. 10869
     Shape of augmentation charge: BESSEL
     Using radial grid of 1059 points,  4 beta functions with:
                l(1) =   0
                l(2) =   0
                l(3) =   1
                l(4) =   1
     Q(r) pseudized with 0 coefficients

     PseudoPot. # 3 for N  read from file:
     ./N.pbe-n-kjpaw_psl.0.1.UPF
     MD5 check sum: f73187c8b701007e77325f868c9291d7
     Pseudo is Projector augmented-wave + core cor, Zval =  5.0
     Generated using "atomic" code by A. Dal Corso v.5.0.99 svn rev. 10869
     Shape of augmentation charge: PSQ
     Using radial grid of 1085 points,  4 beta functions with:
                l(1) =   0
                l(2) =   0
                l(3) =   1
                l(4) =   1
     Q(r) pseudized with 0 coefficients

     atomic species   valence    mass     pseudopotential
        C              4.00    12.01100     C ( 1.00)
        B              3.00    10.81700     B ( 1.00)
        N              5.00    14.00700     N ( 1.00)

     No symmetry found

                                    s                        frac. trans.

      isym =  1     identity

 cryst.   s( 1) = (     1          0          0      )
                  (     0          1          0      )
                  (     0          0          1      )

 cart.    s( 1) = (  1.0000000  0.0000000  0.0000000 )
                  (  0.0000000  1.0000000  0.0000000 )
                  (  0.0000000  0.0000000  1.0000000 )

     point group C_1 (1)
     there are  1 classes
     the character table:

       E
A      1.00

     the symmetry operations in each class and the name of the first element:

     E        1
          identity

   Cartesian axes

     site n.     atom                  positions (alat units)
         1           B   tau(   1) = (   0.0058610   0.5844435   1.2605829  )
         2           N   tau(   2) = (   0.5091539   0.2938749   1.2610349  )
         3           C   tau(   3) = (   0.0101821   0.0063505   2.7456959  )
         4           C   tau(   4) = (   0.0101845   0.5875039   2.7463283  )

   Crystallographic axes

     site n.     atom                  positions (cryst. coord.)
         1           B   tau(   1) = (  0.3392422  0.6692765  0.4276274  )
         2           N   tau(   2) = (  0.6725828  0.3359526  0.4276804  )
         3           C   tau(   3) = (  0.0098326  0.0047472  0.9318230  )
         4           C   tau(   4) = (  0.3431687  0.6714139  0.9318541  )

     number of k points=    10  Methfessel-Paxton smearing, width (Ry)=  0.0200
                       cart. coord. in units 2pi/alat
        k(    1) = (   0.0000000   0.0000000   0.0000000), wk =   0.1250000
        k(    2) = (   0.0000005   0.2867863  -0.0002311), wk =   0.2500000
        k(    3) = (  -0.0000009  -0.5735726   0.0004621), wk =   0.1250000
        k(    4) = (   0.2483667   0.4301799  -0.0005885), wk =   0.2500000
        k(    5) = (  -0.2483658   0.1433927   0.0001264), wk =   0.2500000
        k(    6) = (   0.2483663   0.1433936  -0.0003574), wk =   0.2500000
        k(    7) = (   0.4967316  -0.2867854  -0.0002527), wk =   0.1250000
        k(    8) = (  -0.4967325  -0.2867872   0.0007148), wk =   0.1250000
        k(    9) = (  -0.2483653   0.4301790  -0.0001047), wk =   0.2500000
        k(   10) = (   0.4967321   0.0000009  -0.0004838), wk =   0.2500000

                       cryst. coord.
        k(    1) = (   0.0000000   0.0000000   0.0000000), wk =   0.1250000
        k(    2) = (   0.0000000   0.2500000   0.0000000), wk =   0.2500000
        k(    3) = (  -0.0000000  -0.5000000   0.0000000), wk =   0.1250000
        k(    4) = (   0.2500000   0.2500000   0.0000000), wk =   0.2500000
        k(    5) = (  -0.2500000   0.2500000  -0.0000000), wk =   0.2500000
        k(    6) = (   0.2500000  -0.0000000   0.0000000), wk =   0.2500000
        k(    7) = (   0.5000000  -0.5000000   0.0000000), wk =   0.1250000
        k(    8) = (  -0.5000000   0.0000000  -0.0000000), wk =   0.1250000
        k(    9) = (  -0.2500000   0.5000000  -0.0000000), wk =   0.2500000
        k(   10) = (   0.5000000  -0.2500000   0.0000000), wk =   0.2500000

     Check: negative core charge=   -0.000045

     Initial potential from superposition of free atoms

     starting charge   15.99963, renormalised to   16.00000
     Starting wfcs are   16 randomized atomic wfcs

     Self-consistent Calculation

[...]

     iteration #  5     ecut=    52.00 Ry     beta= 0.70
     Davidson diagonalization with overlap
     c_bands:  1 eigenvalues not converged
     ethr =  1.60E-05,  avg # of iterations =  5.0

[...]

          k =-0.2484 0.4302-0.0001     band energies (ev):

[...]

          k = 0.4967 0.0000-0.0005     band energies (ev):

[...]

     one-electron contribution =     -19.70157137 Ry
     hartree contribution      =      17.87332704 Ry
     xc contribution           =     -16.71411812 Ry
     ewald contribution        =     -31.33950447 Ry
     DFT-D3 Dispersion         =      -0.02336759 Ry
     scf correction            =       0.00013372 Ry
     one-center paw contrib.   =     -26.87246223 Ry
      -> PAW hartree energy AE =      46.64607618 Ry
      -> PAW hartree energy PS =     -46.58228623 Ry
      -> PAW xc energy AE      =     -43.91559612 Ry
      -> PAW xc energy PS      =      16.97934395 Ry
      -> total E_H with PAW    =      17.93711698 Ry
      -> total E_XC with PAW   =     -43.65037029 Ry
     smearing contrib. (-TS)   =       0.00000000 Ry

     iteration # 12     ecut=    52.00 Ry     beta= 0.70
     Davidson diagonalization with overlap
     ethr =  1.63E-10,  avg # of iterations =  2.8

     End of self-consistent calculation

[...]

          k =-0.2484 0.4302-0.0001 (  1652 PWs)   bands (ev):

[...]

          k = 0.4967 0.0000-0.0005 (  1653 PWs)   bands (ev):

   -10.4724  -9.4031  -4.7662  -3.3745  -3.1246  -1.6122   2.6866   3.4902
     8.4378  10.2133  14.7085  17.1120

     occupation numbers
     1.0000   1.0000   1.0000   1.0000   1.0000   1.0000   1.0000   1.0000
    -0.0000  -0.0000  -0.0000  -0.0000

     the Fermi energy is     5.7146 ev

!    total energy              =     -76.77756303 Ry
     Harris-Foulkes estimate   =     -76.77756303 Ry
     estimated scf accuracy    <          1.5E-09 Ry

     total all-electron energy =      -311.843915 Ry

     The total energy is the sum of the following terms:

     one-electron contribution =     -19.70129083 Ry
     hartree contribution      =      17.87313626 Ry
     xc contribution           =     -16.71407088 Ry
     ewald contribution        =     -31.33950447 Ry
     DFT-D3 Dispersion         =      -0.02336759 Ry
     one-center paw contrib.   =     -26.87246552 Ry
      -> PAW hartree energy AE =      46.64506639 Ry
      -> PAW hartree energy PS =     -46.58127685 Ry
      -> PAW xc energy AE      =     -43.91540021 Ry
      -> PAW xc energy PS      =      16.97914515 Ry
      -> total E_H with PAW    =      17.93692580 Ry
      -> total E_XC with PAW   =     -43.65032594 Ry
     smearing contrib. (-TS)   =       0.00000000 Ry

     convergence has been achieved in  12 iterations

     Forces acting on atoms (cartesian axes, Ry/au):

     atom    1 type  2   force =    -0.00002215    0.00003594    0.00089005
     atom    2 type  3   force =     0.00004543   -0.00000910   -0.00021663
     atom    3 type  1   force =     0.00001583   -0.00000244   -0.00018972
     atom    4 type  1   force =    -0.00003911   -0.00002440   -0.00048371
     The non-local contrib.  to forces
     atom    1 type  2   force =     0.00003941    0.00007742    0.00003938
     atom    2 type  3   force =     0.00000295   -0.00003072   -0.00080621
     atom    3 type  1   force =     0.00002279    0.00001809    0.00013615
     atom    4 type  1   force =    -0.00003419   -0.00002604   -0.00046017
     The ionic contribution  to forces
     atom    1 type  2   force =    -0.00010795    0.00005848    0.12934912
     atom    2 type  3   force =    -0.00026257   -0.00036980    0.22251669
     atom    3 type  1   force =     0.00022295    0.00020722   -0.17753027
     atom    4 type  1   force =     0.00014757    0.00010411   -0.17433554
     The local contribution  to forces
     atom    1 type  2   force =     0.00008569   -0.00009219   -0.12914966
     atom    2 type  3   force =     0.00027096    0.00038123   -0.22171100
     atom    3 type  1   force =    -0.00023469   -0.00022696    0.17742389
     atom    4 type  1   force =    -0.00014340   -0.00009345    0.17452873
     The core correction contribution to forces
     atom    1 type  2   force =    -0.00006984   -0.00002050    0.00087232
     atom    2 type  3   force =     0.00000382    0.00000143    0.00000024
     atom    3 type  1   force =    -0.00002482   -0.00001140   -0.00005186
     atom    4 type  1   force =    -0.00003975   -0.00002393   -0.00003155
     The Hubbard contrib.    to forces
     atom    1 type  2   force =     0.00000000    0.00000000    0.00000000
     atom    2 type  3   force =     0.00000000    0.00000000    0.00000000
     atom    3 type  1   force =     0.00000000    0.00000000    0.00000000
     atom    4 type  1   force =     0.00000000    0.00000000    0.00000000
     The SCF correction term to forces
     atom    1 type  2   force =    -0.00000001   -0.00000010   -0.00000188
     atom    2 type  3   force =    -0.00000020   -0.00000401   -0.00000827
     atom    3 type  1   force =    -0.00000088   -0.00000216   -0.00000078
     atom    4 type  1   force =     0.00000107    0.00000270    0.00000011

     DFT-D3 dispersion contribution to forces:
     atom    1 type  2   force =     0.00000029    0.00000018   -0.00002437
     atom    2 type  3   force =     0.00000019    0.00000013   -0.00001322
     atom    3 type  1   force =     0.00000020    0.00000012    0.00002801
     atom    4 type  1   force =    -0.00000068   -0.00000044    0.00000958

     Total force =     0.001056     Total SCF correction =     0.000010

     DFT-D3 dispersion Force =     0.000041

     Computing stress (Cartesian axis) and pressure

          total   stress  (Ry/bohr**3)                   (kbar)     P=        0.59
   0.00000115  -0.00000027   0.00000031            0.17       -0.04        0.05
  -0.00000027   0.00000101   0.00000022           -0.04        0.15        0.03
   0.00000031   0.00000022   0.00000994            0.05        0.03        1.46

     kinetic stress (kbar)  10665.98     -0.02     -1.50
                               -0.02  10665.99     -1.24
                               -1.50     -1.24  12055.77

     local   stress (kbar) -24993.31     -0.02    -51.58
                               -0.02 -24992.96    -42.64
                              -51.58    -42.64  21012.25

     nonloc. stress (kbar)   3903.97      0.01      0.37
                                0.01   3903.95      0.30
                                0.37      0.30   3590.25

     hartree stress (kbar)   8396.13     -0.02     16.96
                               -0.02   8396.10     14.02
                               16.96     14.02  -6768.02

     exc-cor stress (kbar)  -1386.00      0.00      0.12
                                0.00  -1386.00      0.10
                                0.12      0.10  -1493.21

     corecor stress (kbar)  -1331.75     -0.05     -0.03
                               -0.05  -1331.70     -0.03
                               -0.03     -0.03  -1294.10

     ewald   stress (kbar)   4751.98      0.05     35.70
                                0.05   4751.61     29.52
                               35.70     29.52 -27080.45

     hubbard stress (kbar)      0.00      0.00      0.00
                                0.00      0.00      0.00
                                0.00      0.00      0.00

     london  stress (kbar)      0.00      0.00      0.00
                                0.00      0.00      0.00
                                0.00      0.00      0.00

     DFT-D3  stress (kbar)     -6.83      0.00      0.01
                                0.00     -6.83      0.01
                                0.01      0.01    -21.02

     XDM     stress (kbar)      0.00      0.00      0.00
                                0.00      0.00      0.00
                                0.00      0.00      0.00

     dft-nl  stress (kbar)      0.00      0.00      0.00
                                0.00      0.00      0.00
                                0.00      0.00      0.00

     TS-vdW  stress (kbar)      0.00      0.00      0.00
                                0.00      0.00      0.00
                                0.00      0.00      0.00

     Writing output data file ./Gr_BN.save/

     General routines

     PAW routines

   This run was terminated on:  19:27:39   4Jun2020

   JOB DONE.